273
Lattice="15.452335382779504 0.0 0.0 0.0 15.452335382779504 0.0 0.0 0.0 36.852908200141535" Properties=species:S:1:pos:R:3:forces:R:3 energy=-42436.16954898952 free_energy=-42436.16954898952 stress="-0.0021842969665594957 -2.0199467534387938e-05 -9.181576151994517e-07 -2.0199467534387938e-05 -0.00981235043363654 -2.7544728455983548e-06 -9.181576151994517e-07 -2.7544728455983548e-06 0.0003158462196286114" pbc="T T T"
Ni       6.82734402       3.86335066      24.10437161      -0.00054070       0.00008073      -0.00061861
Si       2.94283409       0.00446769      25.15869338      -0.00104875      -0.00143699       0.00076465
Si       2.58887255       3.86005719      25.94471926       0.00040881      -0.00220446      -0.00022317
Si       2.94378930       7.71801749      25.15949523      -0.00034607      -0.00129404       0.00133852
Si       2.58783948      11.58655705      25.92025269      -0.00004422      -0.00200058       0.00034016
Si       5.14609422       0.01065165      25.94883665      -0.00018152       0.00319511       0.00027279
Si       4.76500259       3.87000338      25.08285290       0.00089963       0.00475911       0.00086903
Si       5.14716579       7.72572477      25.95042240       0.00062426       0.00373736       0.00140511
Si       4.78813343      11.59328548      25.14673304       0.00018718       0.00273283       0.00065280
Si      10.66314673      11.58808932      25.15095879       0.00018718      -0.00075385      -0.00003728
Si      10.32505512       7.73738309      25.95541037       0.00080681      -0.00076979       0.00028539
Si      10.66374776       3.86213609      25.16360578       0.00043323      -0.00058261       0.00008048
Si      10.32473178      15.43914539      25.95475416       0.00054045      -0.00047103      -0.00015427
Si      12.87165914      11.58966340      25.91864102       0.00013035       0.00031830       0.00028334
Si      12.87671786       3.86368801      25.92176177       0.00074845       0.00044917       0.00019180
Si      12.53101100      15.44855767      25.16784894       0.00083869       0.00022291       0.00009230
Si      12.53140582       7.73076655      25.16819631       0.00114363       0.00039338       0.00031419
Si       2.04587944       2.04913479      24.46625111       0.00023731      -0.00192164      -0.00118862
Si       2.04653859       5.67273960      24.46991823       0.00070782      -0.00121639       0.00140922
Si       2.05241976       9.77185864      24.46143142       0.00064689      -0.00130612      -0.00119273
Si       2.05193044      13.40219962      24.46420494       0.00028796      -0.00198669       0.00078907
Si       5.66817662       1.76345305      24.41540633      -0.00091943       0.00228160      -0.00212553
Si       5.66957779       5.96964693      24.42197152       0.00002648       0.00237313       0.00243226
Si       5.68200436       9.53395218      24.47167835       0.00013678       0.00231039      -0.00147273
Si       5.68278786      13.65225754      24.47591114       0.00068443       0.00288915       0.00145267
Si      13.42418255       2.04546646      24.47175808      -0.00019180       0.00060447      -0.00006762
Si      13.41703964       9.77786554      24.45837868      -0.00015555       0.00071065      -0.00016172
Si       9.80215150       1.79269816      24.47859931       0.00010901      -0.00012676       0.00060575
Si       9.80268011       5.93199977      24.47806631       0.00048568      -0.00077107       0.00025454
Si       9.77633398       9.53214357      24.46808772       0.00014398      -0.00101456       0.00031213
Si       9.77647097      13.64441062      24.46680461       0.00023706      -0.00022163      -0.00051731
Si      13.42464193       5.68169101      24.47116642       0.00015375       0.00012650      -0.00048234
Si      13.41676717      13.40142139      24.45784060      -0.00035867      -0.00012110      -0.00053865
Si       0.00437783       1.94401537      23.22816932      -0.00051576      -0.00014758      -0.00013267
Si       0.00569902       5.78121909      23.22903148       0.00043040      -0.00053299       0.00047745
Si       0.00856808       9.67203897      23.22710633       0.00000874       0.00014835       0.00008330
Si       0.00893827      13.50575871      23.22765642       0.00025531      -0.00067286       0.00047771
Si       3.84767283       1.91477297      22.91351823      -0.00080887      -0.00096185      -0.00113000
Si       3.84951172       5.80888253      22.91572986       0.00046563      -0.00086595       0.00040752
Si       3.86792511       9.65660460      22.93100907       0.00014372      -0.00164756      -0.00140151
Si       3.86835230      13.51885082      22.93305750       0.00040289      -0.00057438       0.00006273
Si       7.77125241       1.87876996      23.22887970       0.00027896       0.00109838       0.00056076
Si       7.77035427       5.84790301      23.23087904      -0.00035250      -0.00080527       0.00198232
Si       7.72717379       9.63969991      23.23870666       0.00047103       0.00013113       0.00009976
Si       7.72606069      13.53885454      23.23943126      -0.00029233      -0.00010284       0.00062992
Si      11.60687633       1.92393066      22.93237464      -0.00031933      -0.00005965       0.00005399
Si      11.60748058       5.80282488      22.93208666       0.00009693       0.00049339      -0.00014604
Si      11.59303952       9.65774488      22.92727677      -0.00001440      -0.00007353      -0.00049391
Si      11.59314374      13.52149905      22.92673961       0.00002623       0.00061244      -0.00085695
Si       0.00020129      15.45112208      21.84151852      -0.00013421      -0.00056976       0.00006145
Si       0.00357543       3.86293360      21.81201611      -0.00018152      -0.00011673      -0.00008639
Si       0.00043048       7.72662329      21.84175354       0.00003060      -0.00000617       0.00022780
Si       0.00614324      11.58912561      21.80862854       0.00028848      -0.00009873      -0.00040392
Si       3.86063646      15.43911214      21.59046529       0.00001131      -0.00104772      -0.00184451
Si       3.85609098       3.86254602      21.60423758      -0.00006505      -0.00040418       0.00014115
Si       3.86094414       7.73544490      21.59025146       0.00023423      -0.00177715      -0.00202346
Si       3.85945391      11.58810134      21.60531999      -0.00013550      -0.00083278      -0.00023346
Si       7.71873139      15.43994364      21.79239666       0.00015709       0.00005451       0.00082044
Si       7.70283466       3.86206348      21.82241788      -0.00005991      -0.00071322       0.00022343
Si       7.71863287       7.73764078      21.79236545       0.00010850      -0.00072711       0.00081015
Si       7.72784837      11.58909401      21.84859181       0.00007662      -0.00010773      -0.00046177
Si      11.57906493      15.45070953      21.59587355      -0.00008562       0.00042320      -0.00189362
Si      11.61770656       3.86335881      21.61578968      -0.00027099       0.00019643      -0.00013267
Si      11.57899126       7.72856336      21.59604873      -0.00011930       0.00013241      -0.00178023
Si      11.60478688      11.58946191      21.59961302       0.00008690       0.00015684      -0.00035584
Si       1.87149045      15.44768312      20.35309372      -0.00054045      -0.00012521      -0.00051551
Si       1.87888077       3.86319760      20.34505559      -0.00076362       0.00005965      -0.00060935
Si       1.87156714       7.73004751      20.35327539      -0.00048542      -0.00044763      -0.00039492
Si       1.88272300      11.58941120      20.34395003      -0.00007919       0.00010387      -0.00119145
Si       5.83711752       0.00393432      20.33606819       0.00096699       0.00014038       0.00053248
Si       5.83535403       3.86293901      20.34643201       0.00038644      -0.00009179      -0.00005142
Si       5.83723634       7.72224692      20.33582580       0.00107909      -0.00012650       0.00035198
Si       5.84965474      11.58923759      20.36566138      -0.00004859       0.00000129      -0.00083869
Si       9.60368811      15.45209329      20.33808075      -0.00089037       0.00046023      -0.00012624
Si       9.61894201       3.86414577      20.39022912       0.00070962       0.00074408      -0.00015812
Si       9.60371547       7.72669379      20.33810878      -0.00084461      -0.00027614      -0.00012444
Si       9.60776099      11.58978362      20.36802866       0.00023731       0.00038181      -0.00078573
Si      13.57265543      15.45028195      20.36117762      -0.00000591      -0.00024708      -0.00038258
Si      13.58251478       3.86304120      20.34196831       0.00047745      -0.00003162      -0.00112126
Si      13.57268843       7.72759867      20.36146455       0.00002597      -0.00019000      -0.00018435
Si      13.58033548      11.58912616      20.34216385       0.00056024      -0.00008896      -0.00098705
Si       1.89301435       1.92674896      18.99144032       0.00009796       0.00028025      -0.00119505
Si       1.89276467       5.79920946      18.99109253      -0.00008510      -0.00045740      -0.00144573
Si       1.89334206       9.65643548      18.98809009       0.00005759      -0.00012393      -0.00149767
Si       1.89302932      13.52194286      18.98755412      -0.00016738       0.00002725      -0.00188539
Si       5.82380245       1.93722109      18.98136772       0.00011519       0.00003445      -0.00140151
Si       5.82396708       5.78903871      18.98153109       0.00021674       0.00004165      -0.00128015
Si       5.83176956       9.66508921      18.99127368       0.00046897       0.00007919      -0.00161517
Si       5.83177966      13.51373160      18.99146042       0.00047180       0.00016481      -0.00147453
Si       9.61910563       1.94407532      19.00119608      -0.00056230       0.00042295      -0.00087777
Si       9.61945218       5.78279447      19.00040206      -0.00031727       0.00006196      -0.00146424
Si       9.62205750       9.66734314      18.99214376      -0.00049082       0.00026662      -0.00124827
Si       9.62221978      13.51153261      18.99170362      -0.00037230       0.00001183      -0.00158071
Si      13.55655802       1.92531263      18.99271440       0.00034170      -0.00003548      -0.00149278
Si      13.55635462       5.80065738      18.99256340       0.00020389      -0.00010516      -0.00158714
Si      13.55844357       9.65298498      18.99141915       0.00037770      -0.00006813      -0.00149690
Si      13.55819009      13.52518093      18.99109585       0.00020286      -0.00016944      -0.00171030
Si      15.45051237       1.92745980      17.59580742       0.00026945      -0.00013215      -0.00334706
Si      15.45030870       5.79851592      17.59562934       0.00011570      -0.00000694      -0.00347330
Si      15.45096545       9.65503627      17.59335831       0.00014964      -0.00031959      -0.00367848
Si      15.45071347      13.52316202      17.59309490      -0.00004114       0.00011159      -0.00386822
Si       3.85639049       1.92960999      17.66039341       0.00031008       0.00050188      -0.00316631
Si       3.85649699       5.79628489      17.66044913       0.00037924      -0.00068006      -0.00313237
Si       3.86274551       9.65785499      17.66598772       0.00007302       0.00043657      -0.00339694
Si       3.86280434      13.52046659      17.66596875       0.00011776      -0.00054302      -0.00341288
Si       7.72671676       1.93965490      17.59918128      -0.00001106      -0.00012084      -0.00342034
Si       7.72663541       5.78658009      17.59901624      -0.00009385       0.00017921      -0.00352884
Si       7.72672127       9.66274153      17.59738650       0.00016429      -0.00023526      -0.00383454
Si       7.72657478      13.51578688      17.59737322       0.00004679       0.00026714      -0.00384303
Si      11.58600578       1.93405391      17.67044541       0.00012830       0.00078881      -0.00301796
Si      11.58617654       5.79237784      17.66997327       0.00026097      -0.00060575      -0.00334963
Si      11.58999444       9.65893291      17.66717270      -0.00003240       0.00049134      -0.00306296
Si      11.59000944      13.51957910      17.66683700      -0.00000360      -0.00047385      -0.00329821
Si      15.45191731      15.45216578      16.24034334       0.00012341       0.00015144      -0.00700651
Si      15.44982464       3.86297110      16.24706095       0.00009976      -0.00007919      -0.00530496
Si      15.45192908       7.72623499      16.24032505       0.00013087      -0.00021674      -0.00701140
Si      15.44925808      11.58908688      16.24414521       0.00008253      -0.00011210      -0.00558521
Si       3.86206578      15.45030689      16.29081151       0.00008587      -0.00001774      -0.00548339
Si       3.85821715       3.86297254      16.29100636      -0.00004037      -0.00007225      -0.00607475
Si       3.86209444       7.72797390      16.29085870       0.00010284      -0.00011699      -0.00544688
Si       3.86134313      11.58915596      16.29358054       0.00006016      -0.00005656      -0.00601998
Si       7.72781258       0.00151504      16.25101333       0.00022240       0.00014681      -0.00737367
Si       7.72500468       3.86304838      16.23857484       0.00020415      -0.00001594      -0.00531113
Si       7.72778085       7.72467468      16.25095204       0.00019849      -0.00011981      -0.00740812
Si       7.72540577      11.58922463      16.23962117       0.00014604      -0.00001080      -0.00548288
Si      11.58498027       0.00098969      16.29715283       0.00030570       0.00010644      -0.00523554
Si      11.58953488       3.86306944      16.29505675       0.00041780      -0.00001106      -0.00582278
Si      11.58506786       7.72543251      16.29701697       0.00036304       0.00008176      -0.00532424
Si      11.59090629      11.58917363      16.29332661       0.00012804      -0.00004628      -0.00584052
Si       1.94268014      15.45106044      14.90323284       0.00054919      -0.00000334      -0.00726337
Si       1.93924925       3.86307024      14.90540005      -0.00028719      -0.00001028      -0.00808561
Si       1.94270833       7.72735835      14.90325655       0.00056539      -0.00003831      -0.00724177
Si       1.94135837      11.58923142      14.90674673      -0.00012624      -0.00000077      -0.00811903
Si       5.78468879       0.00085041      14.90921554      -0.00054430       0.00011313      -0.00750994
Si       5.77943530       3.86308037      14.90493286       0.00030905      -0.00000309      -0.00778761
Si       5.78466852       7.72546004      14.90919126      -0.00055819       0.00000566      -0.00751945
Si       5.78055106      11.58925064      14.90523676       0.00026637       0.00001183      -0.00787092
Si       9.66773109       0.00017756      14.90787645       0.00098679       0.00005425      -0.00736570
Si       9.67044315       3.86305723      14.90578879       0.00019000      -0.00001774      -0.00785292
Si       9.66773397       7.72596763      14.90785224       0.00098525      -0.00005528      -0.00737495
Si       9.67061081      11.58921970      14.90605544       0.00008228      -0.00001028      -0.00787118
Si      13.50545359       0.00077720      14.90791178      -0.00029233       0.00011467      -0.00719240
Si      13.50797162       3.86301661      14.90685130       0.00045611      -0.00005014      -0.00791746
Si      13.50550236       7.72550910      14.90782364      -0.00026045      -0.00001260      -0.00724485
Si      13.50784162      11.58916276      14.90415447       0.00027459      -0.00004962      -0.00805141
Si       1.93832824       1.93144522      13.54241723       0.00039055       0.00009770      -0.00195969
Si       1.93832944       5.79468010      13.54240520       0.00039261      -0.00011827      -0.00195481
Si       1.93829745       9.65880780      13.54195998       0.00040161       0.00002314      -0.00192601
Si       1.93827375      13.51964684      13.54193224       0.00038541      -0.00003651      -0.00195172
Si       5.78559311       1.93094322      13.54327757      -0.00027177       0.00027794      -0.00204428
Si       5.78558509       5.79526119      13.54335321      -0.00027871      -0.00024348      -0.00197924
Si       5.78622819       9.65652936      13.54396447      -0.00022703       0.00024066      -0.00200829
Si       5.78623623      13.52202248      13.54404893      -0.00022343      -0.00018718      -0.00195764
Si       9.66540117       1.93122719      13.54349126       0.00058930       0.00019000      -0.00207334
Si       9.66541932       5.79490259      13.54348579       0.00060112      -0.00020389      -0.00206434
Si       9.66543299       9.65727225      13.54366506       0.00057233       0.00017406      -0.00199260
Si       9.66546691      13.52119407      13.54367388       0.00059650      -0.00018281      -0.00199209
Si      13.51059395       1.93142928      13.54389942      -0.00016301       0.00014398      -0.00196715
Si      13.51059864       5.79471454      13.54397600      -0.00015787      -0.00015272      -0.00189773
Si      13.51030916       9.65649722      13.54329610      -0.00020877       0.00010156      -0.00200495
Si      13.51028059      13.52199629      13.54344616      -0.00022317      -0.00009025      -0.00190904
Si      15.45048455       1.93086184      12.18775719       0.00006839      -0.00015684       0.00815965
Si      15.45046543       5.79528667      12.18778665       0.00005605       0.00015555       0.00818356
Si      15.45033080       9.65727095      12.18740672       0.00005836      -0.00012316       0.00816659
Si      15.45027595      13.52123470      12.18744511       0.00002160       0.00014167       0.00818922
Si       3.86215091       1.93135317      12.17203463      -0.00000668      -0.00015401       0.00760095
Si       3.86217226       5.79483871      12.17205289       0.00000668       0.00018383       0.00761561
Si       3.86266928       9.65734533      12.17241125       0.00004705      -0.00019103       0.00768348
Si       3.86269115      13.52119659      12.17242972       0.00005939       0.00023474       0.00769454
Si       7.72550426       1.93199742      12.18801359       0.00006042      -0.00026482       0.00818459
Si       7.72548321       5.79417060      12.18805063       0.00004577       0.00027588       0.00821622
Si       7.72562599       9.65801987      12.18809279       0.00012084      -0.00029568       0.00822650
Si       7.72561515      13.52048336      12.18812648       0.00011544       0.00030853       0.00825170
Si      11.58816041       1.93136012      12.17183300       0.00021777      -0.00019772       0.00748860
Si      11.58818947       5.79475458      12.17186172       0.00023937       0.00016944       0.00751482
Si      11.58791463       9.65715903      12.17155725       0.00015761      -0.00020260       0.00753565
Si      11.58795359      13.52129541      12.17158345       0.00018563       0.00018075       0.00755596
Si      15.45128808      15.45231078      10.82211649      -0.00006402      -0.00002211       0.00951257
Si      15.45099949       3.86308457      10.82360382       0.00003754       0.00000206       0.00964524
Si      15.45129189       7.72617107      10.82213710      -0.00006196       0.00002005       0.00951514
Si      15.45022845      11.58925722      10.82313366       0.00001568       0.00001543       0.00965783
Si       3.86180311      -0.00000319      10.81154415       0.00008536       0.00000437       0.00771022
Si       3.86342774       3.86309350      10.81180929      -0.00029259       0.00000900       0.00850290
Si       3.86180638       7.72617675      10.81156267       0.00008562       0.00001697       0.00771357
Si       3.86382604      11.58926331      10.81222857      -0.00028282       0.00002211       0.00864122
Si       7.72573000       0.00005949      10.82337819      -0.00008356      -0.00000951       0.00906725
Si       7.72563519       3.86309228      10.82230853      -0.00003985       0.00000746       0.01008155
Si       7.72572849       7.72608906      10.82339081      -0.00008536       0.00000489       0.00906931
Si       7.72566248      11.58925441      10.82247915       0.00001800       0.00001440       0.01018620
Si      11.58877927       0.00020152      10.81116523      -0.00016815      -0.00002288       0.00756367
Si      11.58799622       3.86307404      10.81164425       0.00010850      -0.00000746       0.00837588
Si      11.58877270       7.72592279      10.81118200      -0.00016918      -0.00000386       0.00756470
Si      11.58801892      11.58923747      10.81170312       0.00005554       0.00000051       0.00849518
Si       1.92807505       0.00001866       9.45635518      -0.00065255      -0.00003522      -0.00468249
Si       1.92829121       3.86310713       9.45792580      -0.00046434       0.00001568      -0.00447706
Si       1.92807649       7.72614644       9.45638812      -0.00065152       0.00004911      -0.00466964
Si       1.92835125      11.58927124       9.45844342      -0.00042475       0.00003677      -0.00427446
Si       5.79660196       0.00002509       9.45747102       0.00044506       0.00001028      -0.00478174
Si       5.79693288       3.86309704       9.45630186       0.00022600       0.00000437      -0.00444672
Si       5.79660138       7.72615996       9.45749478       0.00044506       0.00001363      -0.00476863
Si       5.79702504      11.58924986       9.45633638       0.00025505       0.00002160      -0.00427472
Si       9.65446351       0.00011370       9.45693655      -0.00068906      -0.00004499      -0.00504888
Si       9.65444267       3.86309553       9.45634000      -0.00050985      -0.00000437      -0.00466295
Si       9.65446169       7.72601220       9.45695907      -0.00069111       0.00000746      -0.00503679
Si       9.65443743      11.58924476       9.45644166      -0.00047874       0.00000951      -0.00459353
Si      13.52262727      15.45227036       9.45607525       0.00050188      -0.00002803      -0.00486041
Si      13.52249079       3.86308160       9.45706924       0.00039749      -0.00001414      -0.00455959
Si      13.52262667       7.72621675       9.45611215       0.00050085       0.00001106      -0.00484653
Si      13.52205539      11.58922996       9.45656589       0.00031342      -0.00000411      -0.00461204
Si       1.92930954       1.93205046       8.09452793      -0.00091814       0.00002803       0.00530804
Si       1.92928257       9.65830081       8.09478824      -0.00093768       0.00018615       0.00543891
Si       1.92929081      13.52019088       8.09474392      -0.00093511      -0.00014347       0.00540086
Si       5.79629535       1.93120087       8.09429958       0.00058878       0.00010310       0.00521754
Si       5.79629138       5.79500262       8.09431339       0.00058827      -0.00009565       0.00523219
Si       5.79631686       9.65732751       8.09435564       0.00055459       0.00020080       0.00533350
Si       5.79631552      13.52115934       8.09434789       0.00055124      -0.00016712       0.00531190
Si       9.65539583       1.93137847       8.09408781      -0.00083509       0.00010901       0.00506816
Si       9.65539572       5.79480300       8.09407307      -0.00083767      -0.00013344       0.00506456
Si       9.65545939       9.65740912       8.09424535      -0.00080038       0.00021469       0.00504425
Si       9.65545582      13.52105276       8.09421346      -0.00079961      -0.00021392       0.00500877
Si      13.52219945       1.93185801       8.09415737       0.00067260       0.00004448       0.00519620
Si       1.92931189       5.79415878       8.09452787      -0.00091248      -0.00001440       0.00530959
Si      13.52220085       5.79432864       8.09417915       0.00066952      -0.00006865       0.00521265
Si      13.52201614       9.65789500       8.09392365       0.00064020       0.00003497       0.00515172
Si      13.52201512      13.52055944       8.09390991       0.00064278      -0.00003702       0.00513424
Si      -0.00026550       1.93189991       6.75292565      -0.00026045      -0.00008305      -0.00359466
Si      -0.00026949       5.79428664       6.75294366      -0.00026405       0.00009565      -0.00358823
Si      -0.00023035       9.65813614       6.75302875      -0.00020543      -0.00006505      -0.00351701
Si      -0.00023438      13.52035098       6.75300254      -0.00021109       0.00006428      -0.00353758
Si       3.86281452       1.93165953       6.75698566      -0.00042680      -0.00012881      -0.00129275
Si       3.86281532       5.79453060       6.75699412      -0.00041318       0.00015118      -0.00129892
Si       3.86276087       9.65786550       6.75714844      -0.00048260      -0.00006608      -0.00115108
Si       7.72586176       1.93133716       6.75267191      -0.00043272       0.00008536      -0.00367179
Si       7.72591860       9.65745579       6.75279313      -0.00042783       0.00010953      -0.00357872
Si       7.72591075      13.52103277       6.75277122      -0.00043683      -0.00011133      -0.00359594
Si      11.58890945       5.79456738       6.75665617      -0.00022960       0.00007199      -0.00147658
Si      11.58875568       9.65766782       6.75646606      -0.00036587      -0.00010207      -0.00155629
Si      11.58875587      13.52081358       6.75644231      -0.00035276       0.00008845      -0.00157300
Si       7.72585329       5.79484514       6.75267983      -0.00044403      -0.00007585      -0.00367616
Si      11.58889799       1.93161383       6.75664526      -0.00023243      -0.00006865      -0.00147299
Si       3.86277435      13.52063353       6.75711490      -0.00047823       0.00007816      -0.00117808
H       15.45231486       0.78451733       5.82163007      -0.00005194       0.00389676       0.00161722
H       15.45216365       4.64754114       5.82088980      -0.00020697       0.00439453       0.00121150
H       15.45252118       8.51076079       5.82171439       0.00029851       0.00383737       0.00181700
H       15.45217120      12.37377791       5.82073491      -0.00017946       0.00439864       0.00120405
H        3.86217188       0.78509416       5.82446433      -0.00032267       0.00298608       0.00492675
H        3.86379931       4.64815130       5.82423651      -0.00040161       0.00323522       0.00496531
H        3.86207764       8.51132267       5.82458606      -0.00050471       0.00292566       0.00523811
H        3.86377944      12.37439812       5.82417655      -0.00043477       0.00320359       0.00502342
H        7.72600593       0.78444153       5.82080229      -0.00023423       0.00441227       0.00108269
H        7.72575454       4.64752818       5.82131942      -0.00050137       0.00412611       0.00131255
H        7.72603742       8.51063936       5.82081862      -0.00018075       0.00438167       0.00122847
H        7.72585488      12.37377371       5.82132858      -0.00037821       0.00406440       0.00142208
H       11.58956947       0.78504623       5.82415007      -0.00044763       0.00314574       0.00462259
H       11.58822268       4.64810284       5.82402024      -0.00003137       0.00328484       0.00463081
H       11.58930391       8.51119966       5.82384585      -0.00083021       0.00322776       0.00439350
H       11.58810221      12.37432693       5.82383130      -0.00021932       0.00328587       0.00458453
H       15.45216049       3.07856184       5.82076416      -0.00021469      -0.00436599       0.00122256
H       15.45229972       6.94160344       5.82156026      -0.00008536      -0.00387337       0.00164088
H       15.45216578      10.80479601       5.82087202      -0.00018923      -0.00441201       0.00121433
H       15.45250079      14.66779702       5.82178271       0.00025505      -0.00384688       0.00178229
H        3.86380614       3.07796187       5.82412942      -0.00041420      -0.00320797       0.00497328
H        3.86217587       6.94103537       5.82439282      -0.00029928      -0.00296320       0.00492443
H        3.86375869      10.80416702       5.82429508      -0.00045174      -0.00321079       0.00503036
H        3.86209922      14.66723073       5.82462686      -0.00047565      -0.00293569       0.00517949
H        7.72578032       3.07858698       5.82122425      -0.00045123      -0.00410142       0.00133312
H        7.72600631       6.94168929       5.82074142      -0.00023577      -0.00439402       0.00109375
H        7.72587743      10.80478627       5.82144160      -0.00033321      -0.00407366       0.00143339
H        7.72603789      14.66790788       5.82087472      -0.00018049      -0.00438990       0.00120199
H       11.58819975       3.07800865       5.82391863      -0.00005168      -0.00326144       0.00465652
H       11.58958552       6.94108101       5.82408871      -0.00042886      -0.00312672       0.00464393
H       11.58810985      10.80423534       5.82395743      -0.00023294      -0.00329641       0.00460947
H       11.58930864      14.66734962       5.82391090      -0.00080656      -0.00323779       0.00437833
