        1022
Lattice="  22.8426   0.0000   0.0000   0.0000  22.8426   0.0000   0.0000   0.0000  22.8426 " Time=0.000E+00  Step=0  Energy=-4097.965  Barrier=0.000
Fe     0.00032666    0.00058228    0.00067456       1
Fe     1.42865977    1.42833795    1.42863341       2
Fe     2.85714396    0.00153085    0.00181996       3
Fe     4.28677445    1.43071287    1.43145045       4
Fe     5.71202840    0.00186589    0.00200963       5
Fe     7.14022693    1.43080568    1.43104533       6
Fe     8.56649779    0.00182380    0.00187943       7
Fe     9.99402570    1.43073568    1.43081198       8
Fe    11.42115077    0.00180955    0.00191479       9
Fe    12.84787819    1.43078750    1.43097541      10
Fe    14.27570572    0.00189433    0.00201342      11
Fe    15.70012959    1.43181441    1.43209367      12
Fe    17.12982799    0.00211601    0.00226877      13
Fe    18.55759637    1.42904240    1.42952789      14
Fe    19.98623498    0.00088859    0.00108526      15
Fe    21.41459188    1.42803976    1.42816042      16
Fe     0.00017538    2.85549220    0.00050813      17
Fe     1.42829264    4.28294149    1.42828855      18
Fe     2.85675493    2.85562767    0.00143093      19
Fe     4.28543918    4.28311644    1.43011518      20
Fe     5.71202255    2.85612013    0.00152077      21
Fe     7.13940602    4.28355905    1.42903632      22
Fe     8.56644695    2.85613186    0.00085524      23
Fe     9.99347574    4.28397883    1.42806278      24
Fe    11.42104072    2.85627830    0.00095063      25
Fe    12.84782372    4.28412028    1.42889092      26
Fe    14.27531627    2.85662773    0.00162022      27
Fe    15.70115650    4.28406581    1.43097542      28
Fe    17.13004966    2.85623828    0.00201342      29
Fe    18.55772656    4.28351179    1.42948580      30
Fe    19.98623526    2.85575899    0.00104391      31
Fe    21.41453606    4.28308194    1.42802329      32
Fe     0.00010168    5.71058003    0.00042893      33
Fe     1.42811910    7.13808043    1.42810032      34
Fe     2.85657003    5.71042599    0.00124603      35
Fe     4.28496390    7.13793039    1.42963991      36
Fe     5.71134051    5.71051655    0.00084018      37
Fe     7.13858562    7.13829558    1.42808162      38
Fe     8.56557706    5.71059791   -0.00077800      39
Fe     9.99278980    7.13915420    1.42420861      40
Fe    11.42115176    5.71079224   -0.00092332      41
Fe    12.84796517    7.13846826    1.42806278      42
Fe    14.27566570    5.71090328    0.00095063      43
Fe    15.70120832    7.13791830    1.43081198      44
Fe    17.13013445    5.71079323    0.00191479      45
Fe    18.55769120    7.13816477    1.42947155      46
Fe    19.98620103    5.71072854    0.00101757      47
Fe    21.41447347    7.13824951    1.42799839      48
Fe     0.00002887    8.56576201    0.00038317      49
Fe     1.42798209    9.99341114    1.42802992      50
Fe     2.85636519    8.56560847    0.00104119      51
Fe     4.28455514    9.99325866    1.42923115      52
Fe     5.71102358    8.56575646    0.00053278      53
Fe     7.13828989    9.99365411    1.42790680      54
Fe     8.56536908    8.56657492   -0.00096629      55
Fe     9.99364842    9.99335838    1.42808162      56
Fe    11.42134609    8.56636694   -0.00077800      57
Fe    12.84838495    9.99253798    1.42903632      58
Fe    14.27581214    8.56549705    0.00085524      59
Fe    15.70113831    9.99171707    1.43104533      60
Fe    17.13012020    8.56544621    0.00187943      61
Fe    18.55759258    9.99271972    1.42955634      62
Fe    19.98616825    8.56571851    0.00102412      63
Fe    21.41438569    9.99338467    1.42807955      64
Fe    -0.00005367   11.42098538    0.00038379      65
Fe     1.42813357   12.84837691    1.42824309      66
Fe     2.85618730   11.42085831    0.00086331      67
Fe     4.28548757   12.84645643    1.43016357      68
Fe     5.71126600   11.42067800    0.00074154      69
Fe     7.13868534   12.84738885    1.42923114      70
Fe     8.56618754   11.42092042    0.00053278      71
Fe     9.99401361   12.84698010    1.42963990      72
Fe    11.42142745   11.42060349    0.00084018      73
Fe    12.84882756   12.84650482    1.43011518      74
Fe    14.27582387   11.41992145    0.00152077      75
Fe    15.70123113   12.84516955    1.43145045      76
Fe    17.13007811   11.41991560    0.00200963      77
Fe    18.55733723   12.84684199    1.42977801      78
Fe    19.98613164   11.42062191    0.00106232      79
Fe    21.41427224   12.84835956    1.42826045      80
Fe     0.00000205   14.27610713    0.00051287      81
Fe     1.42810155   15.70384245    1.42811267      82
Fe     2.85640041   14.27554359    0.00107641      83
Fe     4.28356709   15.70381042    1.42824309      84
Fe     5.71108569   14.27575669    0.00086331      85
Fe     7.13853286   15.70396191    1.42802993      86
Fe     8.56633553   14.27557881    0.00104119      87
Fe     9.99386356   15.70382489    1.42810032      88
Fe    11.42151801   14.27537397    0.00124603      89
Fe    12.84900251   15.70365136    1.42828855      90
Fe    14.27631633   14.27518907    0.00143093      91
Fe    15.70360605   15.70328423    1.42863341      92
Fe    17.13041315   14.27480004    0.00181996      93
Fe    18.55852074   15.70324898    1.42855059      94
Fe    19.98615990   14.27557146    0.00104855      95
Fe    21.41446786   15.70378786    1.42816696      96
Fe     0.00009979   17.13184421    0.00047369      97
Fe     1.42815614   18.56006813    1.42816696      98
Fe     2.85583687   17.13194195    0.00051287      99
Fe     4.28358444   18.56026376    1.42826044     100
Fe     5.71095862   17.13199770    0.00038379     101
Fe     7.13855933   18.56015031    1.42807955     102
Fe     8.56618199   17.13191512    0.00038317     103
Fe     9.99369449   18.56006252    1.42799839     104
Fe    11.42136398   17.13184232    0.00042893     105
Fe    12.84886206   18.55999994    1.42802329     106
Fe    14.27645180   17.13176862    0.00050813     107
Fe    15.70390424   18.55994412    1.42816042     108
Fe    17.13136172   17.13161734    0.00067456     109
Fe    18.55893144   18.55993267    1.42824428     110
Fe    19.98664403   17.13166983    0.00061448     111
Fe    21.41466207   18.55987393    1.42814641     112
Fe     0.00027417   19.98789197    0.00061448     113
Fe     1.42869502   21.41601526    1.42855059     114
Fe     2.85637255   19.98837610    0.00104855     115
Fe     4.28510201   21.41719877    1.42977801     116
Fe     5.71132209   19.98840436    0.00106232     117
Fe     7.13922428   21.41694342    1.42955634     118
Fe     8.56622549   19.98836775    0.00102412     119
Fe     9.99377923   21.41684479    1.42947155     120
Fe    11.42121546   19.98833496    0.00101758     121
Fe    12.84843221   21.41680943    1.42948580     122
Fe    14.27618501   19.98830074    0.00104391     123
Fe    15.70290160   21.41693963    1.42952789     124
Fe    17.13105540   19.98830102    0.00108526     125
Fe    18.55778604   21.41674996    1.42919285     126
Fe    19.98644917   19.98808683    0.00085205     127
Fe    21.41460334   21.41560456    1.42824428     128
Fe     0.00033811    0.00049842    2.85570176     129
Fe     1.42840064    1.42826959    4.28343875     130
Fe     2.85733363    0.00186589    2.85670440     131
Fe     4.28636933    1.43080569    4.28490293     132
Fe     5.71480041    0.00443168    2.85947641     133
Fe     7.14646076    1.43625525    4.29113675     134
Fe     8.56705181    0.00331341    2.85844950     135
Fe     9.99416728    1.43294673    4.28817169     136
Fe    11.42090430    0.00314998    2.85839768     137
Fe    12.84706676    1.43284150    4.28801685     138
Fe    14.27470307    0.00338333    2.85846768     139
Fe    15.69632870    1.43561530    4.28944837     140
Fe    17.12815555    0.00378845    2.85837487     141
Fe    18.55808522    1.42903655    4.28378213     142
Fe    19.98627023    0.00097141    2.85599995     143
Fe    21.41485313    1.42782840    4.28304646     144
Fe     0.00007687    2.85538446    2.85549040     145
Fe     1.42760563    4.28289402    4.28302289     146
Fe     2.85684477    2.85612013    2.85669855     147
Fe     4.28436032    4.28355906    4.28408203     148
Fe     5.71860130    2.86178637    2.86327730     149
Fe     7.15582714    4.29754674    4.30050314     150
Fe     8.56786324    2.86035485    2.86050350     151
Fe     9.99317647    4.29006957    4.28999457     152
Fe    11.42076272    2.86050969    2.86060872     153
Fe    12.83278993    4.29915407    4.30086954     154
Fe    14.26846924    2.86347475    2.86391724     155
Fe    15.69910250    4.28487724    4.28801685     156
Fe    17.12856067    2.85724093    2.85846768     157
Fe    18.55875076    4.28346095    4.28379386     158
Fe    19.98652935    2.85577675    2.85593159     159
Fe    21.41486663    4.28298433    4.28292168     160
Fe    -0.00006616    5.71056260    2.85529710     161
Fe     1.42738935    7.13830554    4.28273029     162
Fe     2.85616417    5.71051655    2.85601651     163
Fe     4.28340562    7.13829558    4.28326163     164
Fe     5.71469125    5.71048517    2.85936725     165
Fe     7.14424726    7.13876339    4.28892326     166
Fe     8.56379636    5.70901390    2.85466831     167
Fe     9.98921645    7.14272755    4.23984429     168
Fe    11.42205295    5.70989105    2.85269639     169
Fe    12.84187443    7.13876753    4.28999457     170
Fe    14.27143431    5.71118128    2.86060873     171
Fe    15.69899727    7.13777672    4.28817169     172
Fe    17.12879402    5.71103970    2.85839768     173
Fe    18.55865536    7.13805472    4.28394030     174
Fe    19.98656469    5.71076125    2.85586671     175
Fe    21.41479827    7.13829776    4.28291653     176
Fe    -0.00016748    8.56592152    2.85527022     177
Fe     1.42735241    9.99380039    4.28281961     178
Fe     2.85585678    8.56575646    2.85569958     179
Fe     4.28323080    9.99365411    4.28296589     180
Fe     5.71362858    8.56588038    2.85830458     181
Fe     7.15332326    9.97862074    4.29799926     182
Fe     8.56245459    8.56948941    2.85328880     183
Fe     9.99318061    9.98769674    4.28892326     184
Fe    11.42293010    8.56814764    2.85466831     185
Fe    12.83439726    9.97611686    4.30050314     186
Fe    14.27158915    8.56408076    2.86050350     187
Fe    15.69568875    9.98548324    4.29113675     188
Fe    17.12863058    8.56489219    2.85844950     189
Fe    18.55798578    9.99233027    4.28428973     190
Fe    19.98640321    8.56570148    2.85600264     191
Fe    21.41460815    9.99353519    4.28308481     192
Fe    -0.00022492   11.42115799    2.85546201     193
Fe     1.42798209   12.84859007    4.28320886     194
Fe     2.85606554   11.42067800    2.85594200     195
Fe     4.28455514   12.84738885    4.28336134     196
Fe     5.71665274   11.41529126    2.86132874     197
Fe     7.13828989   12.84871320    4.28296589     198
Fe     8.56606362   11.41831542    2.85830458     199
Fe     9.99364842   12.84853838    4.28326162     200
Fe    11.42145883   11.41725275    2.85936724     201
Fe    12.84838494   12.84758368    4.28408203     202
Fe    14.27015763   11.41334270    2.86327730     203
Fe    15.70113831   12.84557467    4.28490293     204
Fe    17.12751232   11.41714359    2.85947641     205
Fe    18.55759258   12.84706366    4.28390028     206
Fe    19.98603933   11.42034306    2.85627694     207
Fe    21.41438569   12.84854045    4.28323533     208
Fe    -0.00005367   14.27623621    2.85563462     209
Fe     1.42816631   15.70377769    4.28333033     210
Fe     2.85618730   14.27575669    2.85576169     211
Fe     4.28335393   15.70396191    4.28320886     212
Fe     5.71126600   14.27587846    2.85594200     213
Fe     7.13814361   15.70459159    4.28281961     214
Fe     8.56618754   14.27608722    2.85569958     215
Fe     9.99363845   15.70455464    4.28273029     216
Fe    11.42142745   14.27577982    2.85601651     217
Fe    12.84904998   15.70433836    4.28302289     218
Fe    14.27582387   14.27509922    2.85669855     219
Fe    15.70367441   15.70354336    4.28343875     220
Fe    17.13007811   14.27461037    2.85670440     221
Fe    18.55856209   15.70324926    4.28342099     222
Fe    19.98613164   14.27555768    2.85599809     223
Fe    21.41449670   15.70378390    4.28329457     224
Fe     0.00011440   17.13182960    2.85571194     225
Fe     1.42816010   18.56003930    4.28329457     226
Fe     2.85570779   17.13199770    2.85563462     227
Fe     4.28340355   18.56015031    4.28323533     228
Fe     5.71078601   17.13216897    2.85546201     229
Fe     7.13840881   18.55992784    4.28308481     230
Fe     8.56602248   17.13211153    2.85527022     231
Fe     9.99364624   18.55973773    4.28291652     232
Fe    11.42138140   17.13201020    2.85529710     233
Fe    12.84895966   18.55966936    4.28292168     234
Fe    14.27655954   17.13186713    2.85549040     235
Fe    15.70411560   18.55968287    4.28304646     236
Fe    17.13144558   17.13160589    2.85570176     237
Fe    18.55909787   18.55978138    4.28315420     238
Fe    19.98668639   17.13162217    2.85572160     239
Fe    21.41470157   18.55983443    4.28325354     240
Fe     0.00032184   19.98784960    2.85572160     241
Fe     1.42869474   21.41597391    4.28342099     242
Fe     2.85638632   19.98840436    2.85599809     243
Fe     4.28488034   21.41694342    4.28390028     244
Fe     5.71160095   19.98849667    2.85627695     245
Fe     7.13961373   21.41655022    4.28428973     246
Fe     8.56624252   19.98813279    2.85600264     247
Fe     9.99388928   21.41588063    4.28394030     248
Fe    11.42118275   19.98797131    2.85586671     249
Fe    12.84848305   21.41578524    4.28379386     250
Fe    14.27616725   19.98800664    2.85593159     251
Fe    15.70290745   21.41645077    4.28378213     252
Fe    17.13097259   19.98826577    2.85599995     253
Fe    18.55817507   21.41636093    4.28328967     254
Fe    19.98651678   19.98801922    2.85574662     255
Fe    21.41475462   21.41543813    4.28315420     256
Fe     0.00039394    0.00036129    5.71074394     257
Fe     1.42836531    1.42820471    7.13842325     258
Fe     2.85720343    0.00182380    5.71117379     259
Fe     4.28613598    1.43073568    7.13870170     260
Fe     5.71377350    0.00331341    5.71172781     261
Fe     7.14349569    1.43294673    7.13884328     262
Fe     8.56710628    0.00122893    5.71178228     263
Fe     9.99287705    1.42503439    7.13755305     264
Fe    11.42145427    0.00040078    5.71164083     265
Fe    12.85113364    1.42700631    7.13667590     266
Fe    14.27552397    0.00137432    5.71122105     267
Fe    15.70023875    1.43170525    7.13814717     268
Fe    17.12949082    0.00245318    5.71077844     269
Fe    18.55876582    1.42835451    7.13817855     270
Fe    19.98663736    0.00062655    5.71060349     271
Fe    21.41499620    1.42763510    7.13822460     272
Fe     0.00006336    2.85525968    5.71064634     273
Fe     1.42740051    4.28300127    7.13824440     274
Fe     2.85617924    2.85613187    5.71112295     275
Fe     4.28338678    4.28397884    7.13815173     276
Fe     5.71582750    2.86035485    5.71253924     277
Fe     7.14531857    4.29006957    7.13785247     278
Fe     8.58214007    2.87320754    5.72681606     279
Fe    10.03584819    4.29285804    7.18052419     280
Fe    11.42175353    2.86233257    5.71773157     281
Fe    12.80928524    4.32265876    7.17724558     282
Fe    14.25910286    2.87284114    5.72520874     283
Fe    15.70493769    4.28081036    7.13667590     284
Fe    17.13056968    2.85642003    5.71122105     285
Fe    18.56038405    4.28259106    7.13825991     286
Fe    19.98732436    2.85536089    5.71055602     287
Fe    21.41512131    4.28280564    7.13825523     288
Fe    -0.00019127    5.71059323    5.71046764     289
Fe     1.42692231    7.13853207    7.13808793     290
Fe     2.85454595    5.71059792    5.71025306     291
Fe     4.27953261    7.13915420    7.13746580     292
Fe     5.70999231    5.70901390    5.70847236     293
Fe     7.09516829    7.14272755    7.13389245     294
Fe     8.60564476    5.74958358    5.75032076     295
Fe    11.37908181    5.75286219    5.72052003     296
Fe    12.83908597    7.09609581    7.18052419     297
Fe    14.26961143    5.71019047    5.71773157     298
Fe    15.70690961    7.13906695    7.13755305     299
Fe    17.13154322    5.71048973    5.71164083     300
Fe    18.56052937    7.13816576    7.13845424     301
Fe    19.98752948    5.71058240    5.71066327     302
Fe    21.41508450    7.13833151    7.13828849     303
Fe    -0.00026023    8.56614277    5.71047723     304
Fe     1.42738935    9.99388971    7.13831446     305
Fe     2.85435766    8.56657492    5.71004508     306
Fe     4.28340562    9.99335837    7.13832442     307
Fe     5.70861280    8.56948941    5.70713059     308
Fe     7.14424726    9.98769674    7.13785661     309
Fe     8.60583592    8.52610808    5.75051191     310
Fe     9.98921645   10.03677571    7.13389245     311
Fe    11.38236042    8.52629924    5.75032076     312
Fe    12.84187443    9.98662543    7.13785247     313
Fe    14.25873646    8.54980393    5.72681607     314
Fe    15.69899727    9.98844831    7.13884328     315
Fe    17.13071507    8.56483772    5.71178228     316
Fe    18.55865536    9.99267970    7.13856528     317
Fe    19.98728107    8.56584496    5.71077504     318
Fe    21.41479827    9.99370348    7.13832224     319
Fe    -0.00016748   11.42134978    5.71069848     320
Fe     1.42811910   12.84851968    7.13853957     321
Fe     2.85585678   11.42092042    5.71086354     322
Fe     4.28496390   12.84698009    7.13868961     323
Fe     5.71362858   11.41831542    5.71073961     324
Fe     7.13858563   12.84853838    7.13832442     325
Fe     8.56245459   11.42333120    5.70713059     326
Fe     9.99278980   12.85241139    7.13746580     327
Fe    11.42293010   11.42195169    5.70847236     328
Fe    12.84796517   12.84855722    7.13815173     329
Fe    14.27158915   11.41611650    5.71253924     330
Fe    15.70120832   12.84580802    7.13870170     331
Fe    17.12863058   11.41817050    5.71172781     332
Fe    18.55769120   12.84714845    7.13845523     333
Fe    19.98640321   11.42061736    5.71091852     334
Fe    21.41447347   12.84862161    7.13837049     335
Fe     0.00002887   14.27623683    5.71085799     336
Fe     1.42826828   15.70367572    7.13851181     337
Fe     2.85636519   14.27557881    5.71101153     338
Fe     4.28342432   15.70382489    7.13853956     339
Fe     5.71102358   14.27608722    5.71086354     340
Fe     7.13805429   15.70455464    7.13831445     341
Fe     8.56536908   14.27758633    5.71004508     342
Fe     9.99341193   15.70502168    7.13808793     343
Fe    11.42134609   14.27739805    5.71025306     344
Fe    12.84894273   15.70454348    7.13824440     345
Fe    14.27581214   14.27576476    5.71112295     346
Fe    15.70373929   15.70357869    7.13842325     347
Fe    17.13012020   14.27474057    5.71117379     348
Fe    18.55858842   15.70321504    7.13839055     349
Fe    19.98616825   14.27559588    5.71090149     350
Fe    21.41452270   15.70375289    7.13839706     351
Fe     0.00016109   17.13178291    5.71086696     352
Fe     1.42819111   18.56001330    7.13839706     353
Fe     2.85570717   17.13191512    5.71085799     354
Fe     4.28332239   18.56006252    7.13837049     355
Fe     5.71059422   17.13211153    5.71069848     356
Fe     7.13824052   18.55973773    7.13832224     357
Fe     8.56580123   17.13220427    5.71047723     358
Fe     9.99361249   18.55945149    7.13828849     359
Fe    11.42135077   17.13213532    5.71046764     360
Fe    12.84913836   18.55941468    7.13825523     361
Fe    14.27668432   17.13188064    5.71064634     362
Fe    15.70430890   18.55953980    7.13822460     363
Fe    17.13158271   17.13155006    5.71074394     364
Fe    18.55917707   18.55970768    7.13824203     365
Fe    19.98671886   17.13157298    5.71079921     366
Fe    21.41473136   18.55980464    7.13833141     367
Fe     0.00037102   19.98781714    5.71079921     368
Fe     1.42872896   21.41594758    7.13839054     369
Fe     2.85634812   19.98836775    5.71090149     370
Fe     4.28479555   21.41684479    7.13845523     371
Fe     5.71132664   19.98813279    5.71091852     372
Fe     7.13926430   21.41588063    7.13856528     373
Fe     8.56609904   19.98725492    5.71077504     374
Fe     9.99377824   21.41400663    7.13845424     375
Fe    11.42136160   19.98700652    5.71066327     376
Fe    12.84935294   21.41415195    7.13825991     377
Fe    14.27658311   19.98721164    5.71055602     378
Fe    15.70358949   21.41577018    7.13817855     379
Fe    17.13131745   19.98789864    5.71060349     380
Fe    18.55835997   21.41617603    7.13808799     381
Fe    19.98659456   19.98794144    5.71069691     382
Fe    21.41482832   21.41535893    7.13824203     383
Fe     0.00045652    0.00033639    8.56591151     384
Fe     1.42852679    1.42834064    9.99336348     385
Fe     2.85723879    0.00180955    8.56582677     386
Fe     4.28629942    1.43078750    9.99255419     387
Fe     5.71372168    0.00314998    8.56558030     388
Fe     7.14334085    1.43284150    9.99174276     389
Fe     8.56696483    0.00040078    8.56613027     390
Fe     9.99199990    1.42700631    9.99580964     391
Fe    11.42214020   -0.00345334    8.56681620     392
Fe    12.85247541    1.42562680    9.99715141     393
Fe    14.27634437    0.00041962    8.56595758     394
Fe    15.70130142    1.43064258    9.99354239     395
Fe    17.12996610    0.00197790    8.56559239     396
Fe    18.55907322    1.42803758    9.99341846     397
Fe    19.98681089    0.00043832    8.56574244     398
Fe    21.41509753    1.42760822    9.99358352     399
Fe     0.00013172    2.85525452    8.56595976     400
Fe     1.42764892    4.28311304    9.99350696     401
Fe     2.85627463    2.85627830    8.56571672     402
Fe     4.28421492    4.28412028    9.99249972     403
Fe     5.71593272    2.86050969    8.56543871     404
Fe     7.15619354    4.29915407    9.97746593     405
Fe     8.57305557    2.86233257    8.56642953     406
Fe    10.03256958    4.32265876    9.95396124     407
Fe    11.42571355    2.81218229    8.57038955     408
Fe    12.80909408    4.32284992    9.95377008     409
Fe    14.27068274    2.86126126    8.56642539     410
Fe    15.70631720    4.27946859    9.99715141     411
Fe    17.13152438    2.85559963    8.56595758     412
Fe    18.56057233    4.28238308    9.99423692     413
Fe    19.98754064    2.85506829    8.56596755     414
Fe    21.41519027    4.28281523    9.99380477     415
Fe    -0.00015446    5.71062649    8.56599351     416
Fe     1.42740051    7.13837559    9.99361873     417
Fe     2.85440063    5.71079224    8.56582776     418
Fe     4.28338678    7.13846827    9.99264116     419
Fe     5.70802039    5.70989105    8.56672895     420
Fe     7.14531857    7.13876753    9.98655043     421
Fe     8.57584403    5.75286219    8.52375781     422
Fe    10.03584819    7.09609581    9.98376197     423
Fe    12.80928524    7.09937442    9.95396124     424
Fe    14.31976171    5.70623045    8.57038955     425
Fe    15.70493769    7.13994410    9.99580964     426
Fe    17.13539739    5.70980380    8.56681620     427
Fe    18.56038405    7.13836009    9.99402894     428
Fe    19.98800768    5.71042592    8.56619408     429
Fe    21.41512131    7.13836477    9.99381436     430
Fe    -0.00019127    8.56615236    8.56602677     431
Fe     1.42760563    9.99359711    9.99372598     432
Fe     2.85454595    8.56636694    8.56602208     433
Fe     4.28436032    9.99253797    9.99306094     434
Fe     5.70999231    8.56814764    8.56760610     435
Fe     7.15582714    9.97611686    9.97907326     436
Fe     8.60564476    8.52629924    8.52703642     437
Fe     9.99317647    9.98662543    9.98655043     438
Fe    11.37908181    8.55609997    8.52375781     439
Fe    12.83278993    9.97575046    9.97746593     440
Fe    14.26961143    8.55888843    8.56642953     441
Fe    15.69910250    9.98860315    9.99174276     442
Fe    17.13154322    8.56497917    8.56613027     443
Fe    18.55875076    9.99282614    9.99315905     444
Fe    19.98752948    8.56595673    8.56603760     445
Fe    21.41486663    9.99369832    9.99363566     446
Fe    -0.00006616   11.42132290    8.56605740     447
Fe     1.42829264   12.84833145    9.99367851     448
Fe     2.85616417   11.42060349    8.56610345     449
Fe     4.28543918   12.84650482    9.99350356     450
Fe     5.71469124   11.41725275    8.56613483     451
Fe     7.13940603   12.84758368    9.99306094     452
Fe     8.56379636   11.42195169    8.56760610     453
Fe     9.99347573   12.84855722    9.99264117     454
Fe    11.42205295   11.42392361    8.56672895     455
Fe    12.84782372   12.84772908    9.99249972     456
Fe    14.27143431   11.41601127    8.56543872     457
Fe    15.70115650   12.84564458    9.99255419     458
Fe    17.12879402   11.41822232    8.56558030     459
Fe    18.55772657   12.84713420    9.99310821     460
Fe    19.98656469   11.42075330    8.56585875     461
Fe    21.41453606   12.84859671    9.99353806     462
Fe     0.00010168   14.27619107    8.56603997     463
Fe     1.42833544   15.70360856    9.99358509     464
Fe     2.85657003   14.27537397    8.56619401     465
Fe     4.28361255   15.70365136    9.99367851     466
Fe     5.71134051   14.27577982    8.56610345     467
Fe     7.13834689   15.70433836    9.99372598     468
Fe     8.56557706   14.27739805    8.56602209     469
Fe     9.99356840   15.70454348    9.99361873     470
Fe    11.42115176   14.27754337    8.56582776     471
Fe    12.84883096   15.70429508    9.99350696     472
Fe    14.27566570   14.27566937    8.56571672     473
Fe    15.70360336   15.70341721    9.99336348     474
Fe    17.13013445   14.27470521    8.56582677     475
Fe    18.55858187   15.70318225    9.99338051     476
Fe    19.98620103   14.27560243    8.56589146     477
Fe    21.41455898   15.70373286    9.99348279     478
Fe     0.00019864   17.13174536    8.56595059     479
Fe     1.42821114   18.55997702    9.99348279     480
Fe     2.85575293   17.13184232    8.56603997     481
Fe     4.28334729   18.55999994    9.99353806     482
Fe     5.71062110   17.13201020    8.56605740     483
Fe     7.13824568   18.55966936    9.99363566     484
Fe     8.56579164   17.13213532    8.56602677     485
Fe     9.99357923   18.55941468    9.99381436     486
Fe    11.42131751   17.13209851    8.56599351     487
Fe    12.84912877   18.55934573    9.99380477     488
Fe    14.27668948   17.13181227    8.56595976     489
Fe    15.70433578   18.55943847    9.99358352     490
Fe    17.13160761   17.13148748    8.56591151     491
Fe    18.55922283   18.55963488    9.99342401     492
Fe    19.98673889   17.13153670    8.56588494     493
Fe    21.41476891   18.55976709    9.99341504     494
Fe     0.00040730   19.98779711    8.56588494     495
Fe     1.42876175   21.41595412    9.99338051     496
Fe     2.85634158   19.98833496    8.56589146     497
Fe     4.28480980   21.41680943    9.99310821     498
Fe     5.71119071   19.98797131    8.56585875     499
Fe     7.13911786   21.41578524    9.99315905     500
Fe     8.56598727   19.98700652    8.56603760     501
Fe     9.99358391   21.41415195    9.99402894     502
Fe    11.42151808   19.98652832    8.56619408     503
Fe    12.84956092   21.41396367    9.99423692     504
Fe    14.27687571   19.98699536    8.56596755     505
Fe    15.70390642   21.41546278    9.99341845     506
Fe    17.13150568   19.98772511    8.56574244     507
Fe    18.55856481   21.41597119    9.99327047     508
Fe    19.98666172   19.98787428    8.56577019     509
Fe    21.41490112   21.41531317    9.99342401     510
Fe     0.00054431    0.00041755   11.42104667     511
Fe     1.42889067    1.42861495   12.84800505     512
Fe     2.85733742    0.00189434   11.42038172     513
Fe     4.28741767    1.43181441   12.84480559     514
Fe     5.71379168    0.00338333   11.41937907     515
Fe     7.14477237    1.43561530   12.84100470     516
Fe     8.56654506    0.00137432   11.42019997     517
Fe     9.99347117    1.43170525   12.84491475     518
Fe    11.42128158    0.00041962   11.42102037     519
Fe    12.84886639    1.43064258   12.84597742     520
Fe    14.27664011    0.00024480   11.42131611     521
Fe    15.69827726    1.43366674   12.84295326     522
Fe    17.13037486    0.00156914   11.42092066     523
Fe    18.55886446    1.42828000   12.84834000     524
Fe    19.98694791    0.00036793   11.42107314     525
Fe    21.41515497    1.42780001   12.84881999     526
Fe     0.00032184    2.85542281   11.42119719     527
Fe     1.42852679    4.28325652   12.84827936     528
Fe     2.85694422    2.85662773   11.41999227     529
Fe     4.28629942    4.28406581   12.84583250     530
Fe     5.71924124    2.86347476   11.41314524     531
Fe     7.14334085    4.28487724   12.84377850     532
Fe     8.58053274    2.87284114   11.40377886     533
Fe     9.99199990    4.28081036   12.84961369     534
Fe    11.42174939    2.86126126   11.41535874     535
Fe    12.85247541    4.27946859   12.85099320     536
Fe    14.26160674    2.87033726   11.40628274     537
Fe    15.70130142    4.28307762   12.84597742     538
Fe    17.13169920    2.85530389   11.42131611     539
Fe    18.55907322    4.28320154   12.84858242     540
Fe    19.98757759    2.85515761   11.42146239     541
Fe    21.41509753    4.28303648   12.84901178     542
Fe     0.00013172    5.71066024   11.42136548     543
Fe     1.42836531    7.13819675   12.84841529     544
Fe     2.85627463    5.71090328   11.42034170     545
Fe     4.28613598    7.13791830   12.84588432     546
Fe     5.71593273    5.71118129   11.41611031     547
Fe     7.14349569    7.13777672   12.84367327     548
Fe     8.57305557    5.71019047   11.41428743     549
Fe     9.99287705    7.13906695   12.85158561     550
Fe    11.42571355    5.70623045   11.46443771     551
Fe    12.85113364    7.13994410   12.84961369     552
Fe    14.27068274    5.71019461   11.41535874     553
Fe    15.70023875    7.13847283   12.84491475     554
Fe    17.13152438    5.71066242   11.42102037     555
Fe    18.55876582    7.13844145   12.84826549     556
Fe    19.98754064    5.71065245   11.42155171     557
Fe    21.41499620    7.13839540   12.84898490     558
Fe     0.00006336    8.56597366   11.42136032     559
Fe     1.42840064    9.99318125   12.84835041     560
Fe     2.85617924    8.56549705   11.42048813     561
Fe     4.28636933    9.99171707   12.84581431     562
Fe     5.71582750    8.56408076   11.41626515     563
Fe     7.14646076    9.98548324   12.84036476     564
Fe     8.58214007    8.54980393   11.40341246     565
Fe     9.99416728    9.98844831   12.84367327     566
Fe    11.42175353    8.55888843   11.41428743     567
Fe    12.84706676    9.98860315   12.84377850     568
Fe    14.25910286    8.55141126   11.40377886     569
Fe    15.69632870    9.98717163   12.84100470     570
Fe    17.13056968    8.56539894   11.42019997     571
Fe    18.55808522    9.99283787   12.84758345     572
Fe    19.98732436    8.56606398   11.42125911     573
Fe    21.41485313    9.99357354   12.84879160     574
Fe     0.00007687   11.42112960   11.42123554     575
Fe     1.42865977   12.84798659   12.84828205     576
Fe     2.85684477   11.41992145   11.42049987     577
Fe     4.28677445   12.84516955   12.84590713     578
Fe     5.71860130   11.41334270   11.41483363     579
Fe     7.14022693   12.84557467   12.84581431     580
Fe     8.56786324   11.41611650   11.41626515     581
Fe     9.99402570   12.84580802   12.84588432     582
Fe    11.42076272   11.41601127   11.41611031     583
Fe    12.84787819   12.84564458   12.84583250     584
Fe    14.26846924   11.41270276   11.41314524     585
Fe    15.70012959   12.84452632   12.84480559     586
Fe    17.12856067   11.41815232   11.41937907     587
Fe    18.55759637   12.84709211   12.84757760     588
Fe    19.98652935   11.42068841   11.42084325     589
Fe    21.41459189   12.84845958   12.84858024     590
Fe     0.00017538   14.27611187   11.42112780     591
Fe     1.42841322   15.70353078   12.84853538     592
Fe     2.85675493   14.27518907   11.42099233     593
Fe     4.28395741   15.70328423   12.84828205     594
Fe     5.71202255   14.27509922   11.42049987     595
Fe     7.13876275   15.70354336   12.84835041     596
Fe     8.56644695   14.27576476   11.42048814     597
Fe     9.99374725   15.70357869   12.84841529     598
Fe    11.42104072   14.27566937   11.42034170     599
Fe    12.84868748   15.70341721   12.84827936     600
Fe    14.27531627   14.27499978   11.41999227     601
Fe    15.70332905   15.70305333   12.84800505     602
Fe    17.13004966   14.27460658   11.42038172     603
Fe    18.55854368   15.70314564   12.84828391     604
Fe    19.98623526   14.27557609   11.42086101     605
Fe    21.41460816   15.70370040   12.84856040     606
Fe     0.00022843   17.13171557   11.42102846     607
Fe     1.42824360   18.55992784   12.84856040     608
Fe     2.85583213   17.13176862   11.42112780     609
Fe     4.28348442   18.55994412   12.84858024     610
Fe     5.71081440   17.13186713   11.42123554     611
Fe     7.13837046   18.55968287   12.84879160     612
Fe     8.56597034   17.13188064   11.42136032     613
Fe     9.99354860   18.55953980   12.84898490     614
Fe    11.42128376   17.13181227   11.42136548     615
Fe    12.84890752   18.55943847   12.84901178     616
Fe    14.27652119   17.13162216   11.42119719     617
Fe    15.70414399   18.55938103   12.84881999     618
Fe    17.13152645   17.13139969   11.42104667     619
Fe    18.55922221   18.55955230   12.84864738     620
Fe    19.98676990   17.13151070   11.42098743     621
Fe    21.41481560   18.55972040   12.84857006     622
Fe     0.00043330   19.98776610   11.42098743     623
Fe     1.42879836   21.41599232   12.84828391     624
Fe     2.85636791   19.98830074   11.42086101     625
Fe     4.28485189   21.41693963   12.84757760     626
Fe     5.71125559   19.98800664   11.42084325     627
Fe     7.13910613   21.41645077   12.84758345     628
Fe     8.56588002   19.98721164   11.42125911     629
Fe     9.99350255   21.41577018   12.84826549     630
Fe    11.42129155   19.98699536   11.42155171     631
Fe    12.84874245   21.41546278   12.84858242     632
Fe    14.27678639   19.98695841   11.42146239     633
Fe    15.70366400   21.41567154   12.84834000     634
Fe    17.13157607   19.98758809   11.42107314     635
Fe    18.55874269   21.41579331   12.84852031     636
Fe    19.98676369   19.98777231   11.42095166     637
Fe    21.41498370   21.41531379   12.84864738     638
Fe     0.00065776    0.00059845   14.27602156     639
Fe     1.42879836    1.42833609   15.70321968     640
Fe     2.85759277    0.00211601   14.27450398     641
Fe     4.28485189    1.42904240   15.70227237     642
Fe     5.71369887    0.00378845   14.27283155     643
Fe     7.13910613    1.42903655   15.70276122     644
Fe     8.56610244    0.00245318   14.27416682     645
Fe     9.99350255    1.42835451   15.70344182     646
Fe    11.42091639    0.00197790   14.27464210     647
Fe    12.84874246    1.42803758   15.70374922     648
Fe    14.27624466    0.00156914   14.27505085     649
Fe    15.70366400    1.42828000   15.70354046     650
Fe    17.12944243    0.00250157   14.27411843     651
Fe    18.55874269    1.42809969   15.70341869     652
Fe    19.98679642    0.00058109   14.27603891     653
Fe    21.41498370    1.42797262   15.70389822     654
Fe     0.00054431    2.85557333   14.27620245     655
Fe     1.42876175    4.28323949   15.70325787     656
Fe     2.85733742    2.85623828   14.27472566     657
Fe     4.28480980    4.28351179   15.70240257     658
Fe     5.71379168    2.85724093   14.27323667     659
Fe     7.13911786    4.28346095   15.70342676     660
Fe     8.56654506    2.85642003   14.27524568     661
Fe     9.99358391    4.28259106   15.70506005     662
Fe    11.42128158    2.85559963   14.27620038     663
Fe    12.84956092    4.28238308   15.70524833     664
Fe    14.27664011    2.85530389   14.27637520     665
Fe    15.70390642    4.28320154   15.70374922     666
Fe    17.13037486    2.85569934   14.27505086     667
Fe    18.55856481    4.28334953   15.70324081     668
Fe    19.98694791    2.85554686   14.27625207     669
Fe    21.41490112    4.28319599   15.70389883     670
Fe     0.00045652    5.71070849   14.27628361     671
Fe     1.42872896    7.13822946   15.70326442     672
Fe     2.85723879    5.71079323   14.27481045     673
Fe     4.28479555    7.13816477   15.70236721     674
Fe     5.71372168    5.71103970   14.27347002     675
Fe     7.13926430    7.13805472   15.70333137     676
Fe     8.56696483    5.71048973   14.27621922     677
Fe     9.99377824    7.13816576   15.70520537     678
Fe    11.42214020    5.70980380   14.28007339     679
Fe    12.84935294    7.13836009   15.70506005     680
Fe    14.27634437    5.71066242   14.27620038     681
Fe    15.70358949    7.13844145   15.70344182     682
Fe    17.12996609    5.71102761   14.27464209     683
Fe    18.55835997    7.13853201   15.70303597     684
Fe    19.98681089    5.71087757   14.27618168     685
Fe    21.41482832    7.13837798   15.70385307     686
Fe     0.00039394    8.56587606   14.27625871     687
Fe     1.42869474    9.99319901   15.70323809     688
Fe     2.85720343    8.56544621   14.27479620     689
Fe     4.28488034    9.99271972   15.70226858     690
Fe     5.71377350    8.56489219   14.27330658     691
Fe     7.13961373    9.99233027   15.70266178     692
Fe     8.56710628    8.56483772   14.27539108     693
Fe     9.99388928    9.99267970   15.70333137     694
Fe    11.42145427    8.56497917   14.27621922     695
Fe    12.84848305    9.99282614   15.70342676     696
Fe    14.27552397    8.56539894   14.27524568     697
Fe    15.70290745    9.99283787   15.70276122     698
Fe    17.12949082    8.56584156   14.27416682     699
Fe    18.55817507    9.99333033   15.70285107     700
Fe    19.98663736    8.56601651   14.27599345     701
Fe    21.41475462    9.99346580   15.70377387     702
Fe     0.00033811   11.42091824   14.27612158     703
Fe     1.42869502   12.84806941   15.70319674     704
Fe     2.85733363   11.41991560   14.27475411     705
Fe     4.28510201   12.84684199   15.70201323     706
Fe     5.71480041   11.41714359   14.27218832     707
Fe     7.13922428   12.84706366   15.70226858     708
Fe     8.56705181   11.41817050   14.27330658     709
Fe     9.99377923   12.84714845   15.70236721     710
Fe    11.42090430   11.41822232   14.27347002     711
Fe    12.84843221   12.84713420   15.70240257     712
Fe    14.27470307   11.41815231   14.27323667     713
Fe    15.70290160   12.84709211   15.70227237     714
Fe    17.12815555   11.41824513   14.27283155     715
Fe    18.55778604   12.84742715   15.70246204     716
Fe    19.98627023   11.42062005   14.27564859     717
Fe    21.41460334   12.84837572   15.70360744     718
Fe     0.00032666   14.27594544   14.27603772     719
Fe     1.42848083   15.70346317   15.70342995     720
Fe     2.85714396   14.27480004   14.27508915     721
Fe     4.28387459   15.70324898   15.70319674     722
Fe     5.71202840   14.27461037   14.27475411     723
Fe     7.13874499   15.70324926   15.70323809     724
Fe     8.56649779   14.27474057   14.27479620     725
Fe     9.99371454   15.70321504   15.70326442     726
Fe    11.42115077   14.27470521   14.27481045     727
Fe    12.84870451   15.70318225   15.70325788     728
Fe    14.27570572   14.27460658   14.27472566     729
Fe    15.70360791   15.70314564   15.70321968     730
Fe    17.12982799   14.27435123   14.27450399     731
Fe    18.55855746   15.70317390   15.70323346     732
Fe    19.98623498   14.27553474   14.27573141     733
Fe    21.41465583   15.70365803   15.70366752     734
Fe     0.00026793   17.13167607   14.27613559     735
Fe     1.42828597   18.55988017   15.70366752     736
Fe     2.85599856   17.13161734   14.27603772     737
Fe     4.28356828   18.55993266   15.70360744     738
Fe     5.71102576   17.13160589   14.27612158     739
Fe     7.13847820   18.55978138   15.70377387     740
Fe     8.56606794   17.13155006   14.27625871     741
Fe     9.99356603   18.55970768   15.70385307     742
Fe    11.42123551   17.13148748   14.27628361     743
Fe    12.84874801   18.55963488   15.70389883     744
Fe    14.27637067   17.13139969   14.27620245     745
Fe    15.70397138   18.55955230   15.70389821     746
Fe    17.13134556   17.13128624   14.27602156     747
Fe    18.55909313   18.55960805   15.70376913     748
Fe    19.98677386   17.13148187   14.27611504     749
Fe    21.41483021   18.55970579   15.70380831     750
Fe     0.00046213   19.98776214   14.27611504     751
Fe     1.42877010   21.41597854   15.70323345     752
Fe     2.85640926   19.98830102   14.27573140     753
Fe     4.28451685   21.41674996   15.70246204     754
Fe     5.71132395   19.98826577   14.27564859     755
Fe     7.13861367   21.41636093   15.70285107     756
Fe     8.56592749   19.98789864   14.27599345     757
Fe     9.99341199   21.41617603   15.70303597     758
Fe    11.42106644   19.98772511   14.27618168     759
Fe    12.84859447   21.41597119   15.70324081     760
Fe    14.27639714   19.98758809   14.27625207     761
Fe    15.70384431   21.41579331   15.70341869     762
Fe    17.13136291   19.98773958   14.27603891     763
Fe    18.55852959   21.41600641   15.70320559     764
Fe    19.98682845   19.98770755   14.27616933     765
Fe    21.41492795   21.41544287   15.70376912     766
Fe     0.00046213    0.00050496   17.13144986     767
Fe     1.42824360    1.42805960   18.55928416     768
Fe     2.85640926    0.00088859   17.13091098     769
Fe     4.28348442    1.42803976   18.55926788     770
Fe     5.71132395    0.00097141   17.13094623     771
Fe     7.13837046    1.42782840   18.55952913     772
Fe     8.56592749    0.00062655   17.13131336     773
Fe     9.99354860    1.42763510   18.55967220     774
Fe    11.42106644    0.00043832   17.13148689     775
Fe    12.84890752    1.42760822   18.55977353     776
Fe    14.27639714    0.00036793   17.13162391     777
Fe    15.70414399    1.42780001   18.55983097     778
Fe    17.13136291    0.00058109   17.13147242     779
Fe    18.55922222    1.42797262   18.55965970     780
Fe    19.98682845    0.00045066   17.13150445     781
Fe    21.41481560    1.42804994   18.55949160     782
Fe     0.00043330    2.85563257   17.13144590     783
Fe     1.42821114    4.28313721   18.55923498     784
Fe     2.85636791    2.85575899   17.13091126     785
Fe     4.28334729    4.28308194   18.55921206     786
Fe     5.71125559    2.85577675   17.13120536     787
Fe     7.13824568    4.28298434   18.55954264     788
Fe     8.56588002    2.85536089   17.13200036     789
Fe     9.99357923    4.28280564   18.55979732     790
Fe    11.42129155    2.85506829   17.13221664     791
Fe    12.84912877    4.28281523   18.55986627     792
Fe    14.27678639    2.85515761   17.13225359     793
Fe    15.70433578    4.28303648   18.55977353     794
Fe    17.13157607    2.85554686   17.13162391     795
Fe    18.55922283    4.28319599   18.55957712     796
Fe    19.98676369    2.85566834   17.13143969     797
Fe    21.41476891    4.28320496   18.55944491     798
Fe     0.00040730    5.71073506   17.13141488     799
Fe     1.42819111    7.13822294   18.55919870     800
Fe     2.85634158    5.71072854   17.13087704     801
Fe     4.28332239    7.13824951   18.55914948     802
Fe     5.71119071    5.71076125   17.13124069     803
Fe     7.13824052    7.13829776   18.55947427     804
Fe     8.56598727    5.71058240   17.13220548     805
Fe     9.99361249    7.13833151   18.55976051     806
Fe    11.42151807    5.71042593   17.13268368     807
Fe    12.84913836    7.13836477   18.55979732     808
Fe    14.27687571    5.71065245   17.13221664     809
Fe    15.70430890    7.13839540   18.55967220     810
Fe    17.13150568    5.71087757   17.13148689     811
Fe    18.55917707    7.13837798   18.55950432     812
Fe    19.98666172    5.71084981   17.13133772     813
Fe    21.41473136    7.13828859   18.55940736     814
Fe     0.00037102    8.56582079   17.13139486     815
Fe     1.42816010    9.99332543   18.55917270     816
Fe     2.85634812    8.56571851   17.13084425     817
Fe     4.28340355    9.99338467   18.55906169     818
Fe     5.71132664    8.56570148   17.13107921     819
Fe     7.13840881    9.99353519   18.55928415     820
Fe     8.56609904    8.56584496   17.13195708     821
Fe     9.99364624    9.99370348   18.55947427     822
Fe    11.42136160    8.56595673   17.13220548     823
Fe    12.84895966    9.99369832   18.55954264     824
Fe    14.27658311    8.56606398   17.13200036     825
Fe    15.70411560    9.99357354   18.55952913     826
Fe    17.13131745    8.56601651   17.13131336     827
Fe    18.55909787    9.99346580   18.55943062     828
Fe    19.98659456    8.56592309   17.13127056     829
Fe    21.41470157    9.99336646   18.55937757     830
Fe     0.00032184   11.42089840   17.13136240     831
Fe     1.42815614   12.84845304   18.55914387     832
Fe     2.85638632   11.42062191   17.13080764     833
Fe     4.28358444   12.84835956   18.55894824     834
Fe     5.71160094   11.42034305   17.13071533     835
Fe     7.13855933   12.84854045   18.55906169     836
Fe     8.56624252   11.42061736   17.13107921     837
Fe     9.99369449   12.84862161   18.55914948     838
Fe    11.42118275   11.42075329   17.13124069     839
Fe    12.84886206   12.84859671   18.55921206     840
Fe    14.27616725   11.42068841   17.13120536     841
Fe    15.70390424   12.84845958   18.55926788     842
Fe    17.13097259   11.42062005   17.13094623     843
Fe    18.55893144   12.84837572   18.55927934     844
Fe    19.98651678   11.42087338   17.13119278     845
Fe    21.41466207   12.84847359   18.55933807     846
Fe     0.00027417   14.27600552   17.13132003     847
Fe     1.42815332   15.70379068   18.55922153     848
Fe     2.85637254   14.27557145   17.13083590     849
Fe     4.28349096   15.70378786   18.55914387     850
Fe     5.71132209   14.27555768   17.13080764     851
Fe     7.13861857   15.70378390   18.55917270     852
Fe     8.56622549   14.27559588   17.13084425     853
Fe     9.99372106   15.70375289   18.55919870     854
Fe    11.42121546   14.27560242   17.13087704     855
Fe    12.84880679   15.70373286   18.55923498     856
Fe    14.27618501   14.27557609   17.13091126     857
Fe    15.70388440   15.70370040   18.55928416     858
Fe    17.13105541   14.27553474   17.13091098     859
Fe    18.55899152   15.70365803   18.55933183     860
Fe    19.98644917   14.27576795   17.13112517     861
Fe    21.41467787   15.70378216   18.55935387     862
Fe     0.00025213   17.13169187   17.13144416     863
Fe     1.42816184   18.55985813   18.55935387     864
Fe     2.85593848   17.13166983   17.13132003     865
Fe     4.28347041   18.55987393   18.55933807     866
Fe     5.71104560   17.13162216   17.13136240     867
Fe     7.13857754   18.55983443   18.55937757     868
Fe     8.56612321   17.13157298   17.13139486     869
Fe     9.99365541   18.55980464   18.55940736     870
Fe    11.42120894   17.13153670   17.13141489     871
Fe    12.84873904   18.55976709   18.55944491     872
Fe    14.27631143   17.13151070   17.13144590     873
Fe    15.70389406   18.55972040   18.55949160     874
Fe    17.13143904   17.13148187   17.13144986     875
Fe    18.55913231   18.55970579   18.55950621     876
Fe    19.98677669   17.13155953   17.13145268     877
Fe    21.41477528   18.55976072   18.55945128     878
Fe     0.00038447   19.98775932   17.13145268     879
Fe     1.42828597   21.41554448   18.55933183     880
Fe     2.85617605   19.98808683   17.13112517     881
Fe     4.28356828   21.41560456   18.55927934     882
Fe     5.71107062   19.98801922   17.13119278     883
Fe     7.13847820   21.41543813   18.55943062     884
Fe     8.56602091   19.98794144   17.13127056     885
Fe     9.99356602   21.41535893   18.55950432     886
Fe    11.42109419   19.98787428   17.13133772     887
Fe    12.84874801   21.41531317   18.55957712     888
Fe    14.27627566   19.98777231   17.13143969     889
Fe    15.70397138   21.41531379   18.55965970     890
Fe    17.13149333   19.98770755   17.13150445     891
Fe    18.55909312   21.41544287   18.55960395     892
Fe    19.98678174   19.98775426   17.13145774     893
Fe    21.41483021   21.41540368   18.55950621     894
Fe     0.00026793    0.00048441   19.98753593     895
Fe     1.42841322    1.42808461   21.41568122     896
Fe     2.85599856    0.00058228   19.98759466     897
Fe     4.28395741    1.42833795   21.41592777     898
Fe     5.71102576    0.00049842   19.98760611     899
Fe     7.13876275    1.42826959   21.41566864     900
Fe     8.56606794    0.00036129   19.98766194     901
Fe     9.99374725    1.42820471   21.41563331     902
Fe    11.42123551    0.00033639   19.98772452     903
Fe    12.84868748    1.42834064   21.41579479     904
Fe    14.27637067    0.00041755   19.98781231     905
Fe    15.70332905    1.42861495   21.41615867     906
Fe    17.13134556    0.00059845   19.98792576     907
Fe    18.55854368    1.42833609   21.41606636     908
Fe    19.98677386    0.00050496   19.98773013     909
Fe    21.41460816    1.42805960   21.41551160     910
Fe     0.00022843    2.85559154   19.98749643     911
Fe     1.42833544    4.28303491   21.41560344     912
Fe     2.85583213    2.85549220   19.98744338     913
Fe     4.28361255    4.28294149   21.41556064     914
Fe     5.71081440    2.85538446   19.98734487     915
Fe     7.13834689    4.28289402   21.41487364     916
Fe     8.56597034    2.85525968   19.98733136     917
Fe     9.99356840    4.28300127   21.41466852     918
Fe    11.42128376    2.85525452   19.98739973     919
Fe    12.84883096    4.28311304   21.41491692     920
Fe    14.27652119    2.85542281   19.98758984     921
Fe    15.70360336    4.28325652   21.41579479     922
Fe    17.13152645    2.85557333   19.98781231     923
Fe    18.55858187    4.28323949   21.41602975     924
Fe    19.98676990    2.85563257   19.98770130     925
Fe    21.41455898    4.28313721   21.41547914     926
Fe     0.00019864    5.71066941   19.98746664     927
Fe     1.42826828    7.13810819   21.41553628     928
Fe     2.85575293    5.71058003   19.98736968     929
Fe     4.28342432    7.13808044   21.41538711     930
Fe     5.71062110    5.71056260   19.98720180     931
Fe     7.13805429    7.13830554   21.41465736     932
Fe     8.56579164    5.71059323   19.98707668     933
Fe     9.99341193    7.13853207   21.41419032     934
Fe    11.42131751    5.71062649   19.98711349     935
Fe    12.84894272    7.13837560   21.41466852     936
Fe    14.27668948    5.71066024   19.98739972     937
Fe    15.70373929    7.13819675   21.41563331     938
Fe    17.13160761    5.71070849   19.98772452     939
Fe    18.55858842    7.13822945   21.41599696     940
Fe    19.98673888    5.71073505   19.98767530     941
Fe    21.41452270    7.13822294   21.41545911     942
Fe     0.00016109    8.56575304   19.98742909     943
Fe     1.42816631    9.99328966   21.41543431     944
Fe     2.85570717    8.56576201   19.98729688     945
Fe     4.28335393    9.99341114   21.41525009     946
Fe     5.71059422    8.56592152   19.98710047     947
Fe     7.13814361    9.99380039   21.41462041     948
Fe     8.56580123    8.56614277   19.98700773     949
Fe     9.99363846    9.99388971   21.41465736     950
Fe    11.42135077    8.56615236   19.98707668     951
Fe    12.84904998    9.99359711   21.41487364     952
Fe    14.27668432    8.56597366   19.98733136     953
Fe    15.70367441    9.99318125   21.41566864     954
Fe    17.13158271    8.56587606   19.98766194     955
Fe    18.55856209    9.99319901   21.41596274     956
Fe    19.98671886    8.56582079   19.98763902     957
Fe    21.41449670    9.99332543   21.41542810     958
Fe     0.00011440   11.42090806   19.98738240     959
Fe     1.42810155   12.84850733   21.41536955     960
Fe     2.85570779   11.42098538   19.98721430     961
Fe     4.28356709   12.84837691   21.41540158     962
Fe     5.71078601   11.42115799   19.98704303     963
Fe     7.13853286   12.84859007   21.41525009     964
Fe     8.56602248   11.42134978   19.98710047     965
Fe     9.99386356   12.84851968   21.41538710     966
Fe    11.42138140   11.42132290   19.98720180     967
Fe    12.84900251   12.84833145   21.41556064     968
Fe    14.27655954   11.42112960   19.98734487     969
Fe    15.70360605   12.84798659   21.41592777     970
Fe    17.13144558   11.42091824   19.98760611     971
Fe    18.55852074   12.84806941   21.41596302     972
Fe    19.98668640   11.42089840   19.98758984     973
Fe    21.41446786   12.84845304   21.41542414     974
Fe     0.00009979   14.27614631   19.98736779     975
Fe     1.42814826   15.70379574   21.41541626     976
Fe     2.85583687   14.27610713   19.98727005     977
Fe     4.28343666   15.70384245   21.41536955     978
Fe     5.71095862   14.27623621   19.98721430     979
Fe     7.13865434   15.70377769   21.41543431     980
Fe     8.56618199   14.27623683   19.98729688     981
Fe     9.99383581   15.70367572   21.41553628     982
Fe    11.42136397   14.27619107   19.98736968     983
Fe    12.84890909   15.70360856   21.41560344     984
Fe    14.27645180   14.27611187   19.98744338     985
Fe    15.70385938   15.70353078   21.41568122     986
Fe    17.13136172   14.27594544   19.98759466     987
Fe    18.55875395   15.70346317   21.41574883     988
Fe    19.98664403   14.27600552   19.98754217     989
Fe    21.41454553   15.70379068   21.41542131     990
Fe     0.00015472   17.13178928   19.98742272     991
Fe     1.42815332   18.55999047   21.41542131     992
Fe     2.85579769   17.13184421   19.98736779     993
Fe     4.28349096   18.56006813   21.41542414     994
Fe     5.71103594   17.13182960   19.98738240     995
Fe     7.13861857   18.56003930   21.41542810     996
Fe     8.56619096   17.13178291   19.98742909     997
Fe     9.99372106   18.56001330   21.41545911     998
Fe    11.42127459   17.13174536   19.98746664     999
Fe    12.84880679   18.55997702   21.41547914    1000
Fe    14.27635246   17.13171557   19.98749643    1001
Fe    15.70388440   18.55992784   21.41551160    1002
Fe    17.13145959   17.13167607   19.98753593    1003
Fe    18.55899152   18.55988017   21.41555397    1004
Fe    19.98676816   17.13169187   19.98752013    1005
Fe    21.41467787   18.55985813   21.41542984    1006
Fe     0.00025213   19.98776784   19.98752013    1007
Fe     1.42848083   21.41578205   21.41574883    1008
Fe     2.85593848   19.98789197   19.98754217    1009
Fe     4.28387459   21.41601526   21.41596302    1010
Fe     5.71104560   19.98784960   19.98758984    1011
Fe     7.13874499   21.41597391   21.41596274    1012
Fe     8.56612321   19.98781714   19.98763902    1013
Fe     9.99371454   21.41594758   21.41599696    1014
Fe    11.42120894   19.98779711   19.98767530    1015
Fe    12.84870451   21.41595412   21.41602975    1016
Fe    14.27631143   19.98776610   19.98770130    1017
Fe    15.70360791   21.41599232   21.41606636    1018
Fe    17.13143904   19.98776214   19.98773013    1019
Fe    18.55855745   21.41597854   21.41603810    1020
Fe    19.98677668   19.98775932   19.98765247    1021
Fe    21.41465583   21.41554448   21.41555397    1022