LAMMPS data file alpha-FeC

1022 atoms       
1 atom types     

0.0 22.842592 xlo xhi
0.0 22.842592 ylo yhi
0.0 22.842592 zlo zhi

Masses  

1 55.84500        

Atoms

1	1	  0.00000000	  0.00000000	  0.00000000
2	1	  1.42766200	  1.42766200	  1.42766200
3	1	  2.85532400	  0.00000000	  0.00000000
4	1	  4.28298600	  1.42766200	  1.42766200
5	1	  5.71064800	  0.00000000	  0.00000000
6	1	  7.13831000	  1.42766200	  1.42766200
7	1	  8.56597200	  0.00000000	  0.00000000
8	1	  9.99363400	  1.42766200	  1.42766200
9	1	 11.42129600	  0.00000000	  0.00000000
10	1	 12.84895800	  1.42766200	  1.42766200
11	1	 14.27662000	  0.00000000	  0.00000000
12	1	 15.70428200	  1.42766200	  1.42766200
13	1	 17.13194400	  0.00000000	  0.00000000
14	1	 18.55960600	  1.42766200	  1.42766200
15	1	 19.98726800	  0.00000000	  0.00000000
16	1	 21.41493000	  1.42766200	  1.42766200
17	1	  0.00000000	  2.85532400	  0.00000000
18	1	  1.42766200	  4.28298600	  1.42766200
19	1	  2.85532400	  2.85532400	  0.00000000
20	1	  4.28298600	  4.28298600	  1.42766200
21	1	  5.71064800	  2.85532400	  0.00000000
22	1	  7.13831000	  4.28298600	  1.42766200
23	1	  8.56597200	  2.85532400	  0.00000000
24	1	  9.99363400	  4.28298600	  1.42766200
25	1	 11.42129600	  2.85532400	  0.00000000
26	1	 12.84895800	  4.28298600	  1.42766200
27	1	 14.27662000	  2.85532400	  0.00000000
28	1	 15.70428200	  4.28298600	  1.42766200
29	1	 17.13194400	  2.85532400	  0.00000000
30	1	 18.55960600	  4.28298600	  1.42766200
31	1	 19.98726800	  2.85532400	  0.00000000
32	1	 21.41493000	  4.28298600	  1.42766200
33	1	  0.00000000	  5.71064800	  0.00000000
34	1	  1.42766200	  7.13831000	  1.42766200
35	1	  2.85532400	  5.71064800	  0.00000000
36	1	  4.28298600	  7.13831000	  1.42766200
37	1	  5.71064800	  5.71064800	  0.00000000
38	1	  7.13831000	  7.13831000	  1.42766200
39	1	  8.56597200	  5.71064800	  0.00000000
40	1	  9.99363400	  7.13831000	  1.42766200
41	1	 11.42129600	  5.71064800	  0.00000000
42	1	 12.84895800	  7.13831000	  1.42766200
43	1	 14.27662000	  5.71064800	  0.00000000
44	1	 15.70428200	  7.13831000	  1.42766200
45	1	 17.13194400	  5.71064800	  0.00000000
46	1	 18.55960600	  7.13831000	  1.42766200
47	1	 19.98726800	  5.71064800	  0.00000000
48	1	 21.41493000	  7.13831000	  1.42766200
49	1	  0.00000000	  8.56597200	  0.00000000
50	1	  1.42766200	  9.99363400	  1.42766200
51	1	  2.85532400	  8.56597200	  0.00000000
52	1	  4.28298600	  9.99363400	  1.42766200
53	1	  5.71064800	  8.56597200	  0.00000000
54	1	  7.13831000	  9.99363400	  1.42766200
55	1	  8.56597200	  8.56597200	  0.00000000
56	1	  9.99363400	  9.99363400	  1.42766200
57	1	 11.42129600	  8.56597200	  0.00000000
58	1	 12.84895800	  9.99363400	  1.42766200
59	1	 14.27662000	  8.56597200	  0.00000000
60	1	 15.70428200	  9.99363400	  1.42766200
61	1	 17.13194400	  8.56597200	  0.00000000
62	1	 18.55960600	  9.99363400	  1.42766200
63	1	 19.98726800	  8.56597200	  0.00000000
64	1	 21.41493000	  9.99363400	  1.42766200
65	1	  0.00000000	 11.42129600	  0.00000000
66	1	  1.42766200	 12.84895800	  1.42766200
67	1	  2.85532400	 11.42129600	  0.00000000
68	1	  4.28298600	 12.84895800	  1.42766200
69	1	  5.71064800	 11.42129600	  0.00000000
70	1	  7.13831000	 12.84895800	  1.42766200
71	1	  8.56597200	 11.42129600	  0.00000000
72	1	  9.99363400	 12.84895800	  1.42766200
73	1	 11.42129600	 11.42129600	  0.00000000
74	1	 12.84895800	 12.84895800	  1.42766200
75	1	 14.27662000	 11.42129600	  0.00000000
76	1	 15.70428200	 12.84895800	  1.42766200
77	1	 17.13194400	 11.42129600	  0.00000000
78	1	 18.55960600	 12.84895800	  1.42766200
79	1	 19.98726800	 11.42129600	  0.00000000
80	1	 21.41493000	 12.84895800	  1.42766200
81	1	  0.00000000	 14.27662000	  0.00000000
82	1	  1.42766200	 15.70428200	  1.42766200
83	1	  2.85532400	 14.27662000	  0.00000000
84	1	  4.28298600	 15.70428200	  1.42766200
85	1	  5.71064800	 14.27662000	  0.00000000
86	1	  7.13831000	 15.70428200	  1.42766200
87	1	  8.56597200	 14.27662000	  0.00000000
88	1	  9.99363400	 15.70428200	  1.42766200
89	1	 11.42129600	 14.27662000	  0.00000000
90	1	 12.84895800	 15.70428200	  1.42766200
91	1	 14.27662000	 14.27662000	  0.00000000
92	1	 15.70428200	 15.70428200	  1.42766200
93	1	 17.13194400	 14.27662000	  0.00000000
94	1	 18.55960600	 15.70428200	  1.42766200
95	1	 19.98726800	 14.27662000	  0.00000000
96	1	 21.41493000	 15.70428200	  1.42766200
97	1	  0.00000000	 17.13194400	  0.00000000
98	1	  1.42766200	 18.55960600	  1.42766200
99	1	  2.85532400	 17.13194400	  0.00000000
100	1	  4.28298600	 18.55960600	  1.42766200
101	1	  5.71064800	 17.13194400	  0.00000000
102	1	  7.13831000	 18.55960600	  1.42766200
103	1	  8.56597200	 17.13194400	  0.00000000
104	1	  9.99363400	 18.55960600	  1.42766200
105	1	 11.42129600	 17.13194400	  0.00000000
106	1	 12.84895800	 18.55960600	  1.42766200
107	1	 14.27662000	 17.13194400	  0.00000000
108	1	 15.70428200	 18.55960600	  1.42766200
109	1	 17.13194400	 17.13194400	  0.00000000
110	1	 18.55960600	 18.55960600	  1.42766200
111	1	 19.98726800	 17.13194400	  0.00000000
112	1	 21.41493000	 18.55960600	  1.42766200
113	1	  0.00000000	 19.98726800	  0.00000000
114	1	  1.42766200	 21.41493000	  1.42766200
115	1	  2.85532400	 19.98726800	  0.00000000
116	1	  4.28298600	 21.41493000	  1.42766200
117	1	  5.71064800	 19.98726800	  0.00000000
118	1	  7.13831000	 21.41493000	  1.42766200
119	1	  8.56597200	 19.98726800	  0.00000000
120	1	  9.99363400	 21.41493000	  1.42766200
121	1	 11.42129600	 19.98726800	  0.00000000
122	1	 12.84895800	 21.41493000	  1.42766200
123	1	 14.27662000	 19.98726800	  0.00000000
124	1	 15.70428200	 21.41493000	  1.42766200
125	1	 17.13194400	 19.98726800	  0.00000000
126	1	 18.55960600	 21.41493000	  1.42766200
127	1	 19.98726800	 19.98726800	  0.00000000
128	1	 21.41493000	 21.41493000	  1.42766200
129	1	  0.00000000	  0.00000000	  2.85532400
130	1	  1.42766200	  1.42766200	  4.28298600
131	1	  2.85532400	  0.00000000	  2.85532400
132	1	  4.28298600	  1.42766200	  4.28298600
133	1	  5.71064800	  0.00000000	  2.85532400
134	1	  7.13831000	  1.42766200	  4.28298600
135	1	  8.56597200	  0.00000000	  2.85532400
136	1	  9.99363400	  1.42766200	  4.28298600
137	1	 11.42129600	  0.00000000	  2.85532400
138	1	 12.84895800	  1.42766200	  4.28298600
139	1	 14.27662000	  0.00000000	  2.85532400
140	1	 15.70428200	  1.42766200	  4.28298600
141	1	 17.13194400	  0.00000000	  2.85532400
142	1	 18.55960600	  1.42766200	  4.28298600
143	1	 19.98726800	  0.00000000	  2.85532400
144	1	 21.41493000	  1.42766200	  4.28298600
145	1	  0.00000000	  2.85532400	  2.85532400
146	1	  1.42766200	  4.28298600	  4.28298600
147	1	  2.85532400	  2.85532400	  2.85532400
148	1	  4.28298600	  4.28298600	  4.28298600
149	1	  5.71064800	  2.85532400	  2.85532400
150	1	  7.13831000	  4.28298600	  4.28298600
151	1	  8.56597200	  2.85532400	  2.85532400
152	1	  9.99363400	  4.28298600	  4.28298600
153	1	 11.42129600	  2.85532400	  2.85532400
154	1	 12.84895800	  4.28298600	  4.28298600
155	1	 14.27662000	  2.85532400	  2.85532400
156	1	 15.70428200	  4.28298600	  4.28298600
157	1	 17.13194400	  2.85532400	  2.85532400
158	1	 18.55960600	  4.28298600	  4.28298600
159	1	 19.98726800	  2.85532400	  2.85532400
160	1	 21.41493000	  4.28298600	  4.28298600
161	1	  0.00000000	  5.71064800	  2.85532400
162	1	  1.42766200	  7.13831000	  4.28298600
163	1	  2.85532400	  5.71064800	  2.85532400
164	1	  4.28298600	  7.13831000	  4.28298600
165	1	  5.71064800	  5.71064800	  2.85532400
166	1	  7.13831000	  7.13831000	  4.28298600
167	1	  8.56597200	  5.71064800	  2.85532400
168	1	  9.99363400	  7.13831000	  4.28298600
169	1	 11.42129600	  5.71064800	  2.85532400
170	1	 12.84895800	  7.13831000	  4.28298600
171	1	 14.27662000	  5.71064800	  2.85532400
172	1	 15.70428200	  7.13831000	  4.28298600
173	1	 17.13194400	  5.71064800	  2.85532400
174	1	 18.55960600	  7.13831000	  4.28298600
175	1	 19.98726800	  5.71064800	  2.85532400
176	1	 21.41493000	  7.13831000	  4.28298600
177	1	  0.00000000	  8.56597200	  2.85532400
178	1	  1.42766200	  9.99363400	  4.28298600
179	1	  2.85532400	  8.56597200	  2.85532400
180	1	  4.28298600	  9.99363400	  4.28298600
181	1	  5.71064800	  8.56597200	  2.85532400
182	1	  7.13831000	  9.99363400	  4.28298600
183	1	  8.56597200	  8.56597200	  2.85532400
184	1	  9.99363400	  9.99363400	  4.28298600
185	1	 11.42129600	  8.56597200	  2.85532400
186	1	 12.84895800	  9.99363400	  4.28298600
187	1	 14.27662000	  8.56597200	  2.85532400
188	1	 15.70428200	  9.99363400	  4.28298600
189	1	 17.13194400	  8.56597200	  2.85532400
190	1	 18.55960600	  9.99363400	  4.28298600
191	1	 19.98726800	  8.56597200	  2.85532400
192	1	 21.41493000	  9.99363400	  4.28298600
193	1	  0.00000000	 11.42129600	  2.85532400
194	1	  1.42766200	 12.84895800	  4.28298600
195	1	  2.85532400	 11.42129600	  2.85532400
196	1	  4.28298600	 12.84895800	  4.28298600
197	1	  5.71064800	 11.42129600	  2.85532400
198	1	  7.13831000	 12.84895800	  4.28298600
199	1	  8.56597200	 11.42129600	  2.85532400
200	1	  9.99363400	 12.84895800	  4.28298600
201	1	 11.42129600	 11.42129600	  2.85532400
202	1	 12.84895800	 12.84895800	  4.28298600
203	1	 14.27662000	 11.42129600	  2.85532400
204	1	 15.70428200	 12.84895800	  4.28298600
205	1	 17.13194400	 11.42129600	  2.85532400
206	1	 18.55960600	 12.84895800	  4.28298600
207	1	 19.98726800	 11.42129600	  2.85532400
208	1	 21.41493000	 12.84895800	  4.28298600
209	1	  0.00000000	 14.27662000	  2.85532400
210	1	  1.42766200	 15.70428200	  4.28298600
211	1	  2.85532400	 14.27662000	  2.85532400
212	1	  4.28298600	 15.70428200	  4.28298600
213	1	  5.71064800	 14.27662000	  2.85532400
214	1	  7.13831000	 15.70428200	  4.28298600
215	1	  8.56597200	 14.27662000	  2.85532400
216	1	  9.99363400	 15.70428200	  4.28298600
217	1	 11.42129600	 14.27662000	  2.85532400
218	1	 12.84895800	 15.70428200	  4.28298600
219	1	 14.27662000	 14.27662000	  2.85532400
220	1	 15.70428200	 15.70428200	  4.28298600
221	1	 17.13194400	 14.27662000	  2.85532400
222	1	 18.55960600	 15.70428200	  4.28298600
223	1	 19.98726800	 14.27662000	  2.85532400
224	1	 21.41493000	 15.70428200	  4.28298600
225	1	  0.00000000	 17.13194400	  2.85532400
226	1	  1.42766200	 18.55960600	  4.28298600
227	1	  2.85532400	 17.13194400	  2.85532400
228	1	  4.28298600	 18.55960600	  4.28298600
229	1	  5.71064800	 17.13194400	  2.85532400
230	1	  7.13831000	 18.55960600	  4.28298600
231	1	  8.56597200	 17.13194400	  2.85532400
232	1	  9.99363400	 18.55960600	  4.28298600
233	1	 11.42129600	 17.13194400	  2.85532400
234	1	 12.84895800	 18.55960600	  4.28298600
235	1	 14.27662000	 17.13194400	  2.85532400
236	1	 15.70428200	 18.55960600	  4.28298600
237	1	 17.13194400	 17.13194400	  2.85532400
238	1	 18.55960600	 18.55960600	  4.28298600
239	1	 19.98726800	 17.13194400	  2.85532400
240	1	 21.41493000	 18.55960600	  4.28298600
241	1	  0.00000000	 19.98726800	  2.85532400
242	1	  1.42766200	 21.41493000	  4.28298600
243	1	  2.85532400	 19.98726800	  2.85532400
244	1	  4.28298600	 21.41493000	  4.28298600
245	1	  5.71064800	 19.98726800	  2.85532400
246	1	  7.13831000	 21.41493000	  4.28298600
247	1	  8.56597200	 19.98726800	  2.85532400
248	1	  9.99363400	 21.41493000	  4.28298600
249	1	 11.42129600	 19.98726800	  2.85532400
250	1	 12.84895800	 21.41493000	  4.28298600
251	1	 14.27662000	 19.98726800	  2.85532400
252	1	 15.70428200	 21.41493000	  4.28298600
253	1	 17.13194400	 19.98726800	  2.85532400
254	1	 18.55960600	 21.41493000	  4.28298600
255	1	 19.98726800	 19.98726800	  2.85532400
256	1	 21.41493000	 21.41493000	  4.28298600
257	1	  0.00000000	  0.00000000	  5.71064800
258	1	  1.42766200	  1.42766200	  7.13831000
259	1	  2.85532400	  0.00000000	  5.71064800
260	1	  4.28298600	  1.42766200	  7.13831000
261	1	  5.71064800	  0.00000000	  5.71064800
262	1	  7.13831000	  1.42766200	  7.13831000
263	1	  8.56597200	  0.00000000	  5.71064800
264	1	  9.99363400	  1.42766200	  7.13831000
265	1	 11.42129600	  0.00000000	  5.71064800
266	1	 12.84895800	  1.42766200	  7.13831000
267	1	 14.27662000	  0.00000000	  5.71064800
268	1	 15.70428200	  1.42766200	  7.13831000
269	1	 17.13194400	  0.00000000	  5.71064800
270	1	 18.55960600	  1.42766200	  7.13831000
271	1	 19.98726800	  0.00000000	  5.71064800
272	1	 21.41493000	  1.42766200	  7.13831000
273	1	  0.00000000	  2.85532400	  5.71064800
274	1	  1.42766200	  4.28298600	  7.13831000
275	1	  2.85532400	  2.85532400	  5.71064800
276	1	  4.28298600	  4.28298600	  7.13831000
277	1	  5.71064800	  2.85532400	  5.71064800
278	1	  7.13831000	  4.28298600	  7.13831000
279	1	  8.56597200	  2.85532400	  5.71064800
280	1	  9.99363400	  4.28298600	  7.13831000
281	1	 11.42129600	  2.85532400	  5.71064800
282	1	 12.84895800	  4.28298600	  7.13831000
283	1	 14.27662000	  2.85532400	  5.71064800
284	1	 15.70428200	  4.28298600	  7.13831000
285	1	 17.13194400	  2.85532400	  5.71064800
286	1	 18.55960600	  4.28298600	  7.13831000
287	1	 19.98726800	  2.85532400	  5.71064800
288	1	 21.41493000	  4.28298600	  7.13831000
289	1	  0.00000000	  5.71064800	  5.71064800
290	1	  1.42766200	  7.13831000	  7.13831000
291	1	  2.85532400	  5.71064800	  5.71064800
292	1	  4.28298600	  7.13831000	  7.13831000
293	1	  5.71064800	  5.71064800	  5.71064800
294	1	  7.13831000	  7.13831000	  7.13831000
295	1	  8.56597200	  5.71064800	  5.71064800
296	1	 11.42129600	  5.71064800	  5.71064800
297	1	 12.84895800	  7.13831000	  7.13831000
298	1	 14.27662000	  5.71064800	  5.71064800
299	1	 15.70428200	  7.13831000	  7.13831000
300	1	 17.13194400	  5.71064800	  5.71064800
301	1	 18.55960600	  7.13831000	  7.13831000
302	1	 19.98726800	  5.71064800	  5.71064800
303	1	 21.41493000	  7.13831000	  7.13831000
304	1	  0.00000000	  8.56597200	  5.71064800
305	1	  1.42766200	  9.99363400	  7.13831000
306	1	  2.85532400	  8.56597200	  5.71064800
307	1	  4.28298600	  9.99363400	  7.13831000
308	1	  5.71064800	  8.56597200	  5.71064800
309	1	  7.13831000	  9.99363400	  7.13831000
310	1	  8.56597200	  8.56597200	  5.71064800
311	1	  9.99363400	  9.99363400	  7.13831000
312	1	 11.42129600	  8.56597200	  5.71064800
313	1	 12.84895800	  9.99363400	  7.13831000
314	1	 14.27662000	  8.56597200	  5.71064800
315	1	 15.70428200	  9.99363400	  7.13831000
316	1	 17.13194400	  8.56597200	  5.71064800
317	1	 18.55960600	  9.99363400	  7.13831000
318	1	 19.98726800	  8.56597200	  5.71064800
319	1	 21.41493000	  9.99363400	  7.13831000
320	1	  0.00000000	 11.42129600	  5.71064800
321	1	  1.42766200	 12.84895800	  7.13831000
322	1	  2.85532400	 11.42129600	  5.71064800
323	1	  4.28298600	 12.84895800	  7.13831000
324	1	  5.71064800	 11.42129600	  5.71064800
325	1	  7.13831000	 12.84895800	  7.13831000
326	1	  8.56597200	 11.42129600	  5.71064800
327	1	  9.99363400	 12.84895800	  7.13831000
328	1	 11.42129600	 11.42129600	  5.71064800
329	1	 12.84895800	 12.84895800	  7.13831000
330	1	 14.27662000	 11.42129600	  5.71064800
331	1	 15.70428200	 12.84895800	  7.13831000
332	1	 17.13194400	 11.42129600	  5.71064800
333	1	 18.55960600	 12.84895800	  7.13831000
334	1	 19.98726800	 11.42129600	  5.71064800
335	1	 21.41493000	 12.84895800	  7.13831000
336	1	  0.00000000	 14.27662000	  5.71064800
337	1	  1.42766200	 15.70428200	  7.13831000
338	1	  2.85532400	 14.27662000	  5.71064800
339	1	  4.28298600	 15.70428200	  7.13831000
340	1	  5.71064800	 14.27662000	  5.71064800
341	1	  7.13831000	 15.70428200	  7.13831000
342	1	  8.56597200	 14.27662000	  5.71064800
343	1	  9.99363400	 15.70428200	  7.13831000
344	1	 11.42129600	 14.27662000	  5.71064800
345	1	 12.84895800	 15.70428200	  7.13831000
346	1	 14.27662000	 14.27662000	  5.71064800
347	1	 15.70428200	 15.70428200	  7.13831000
348	1	 17.13194400	 14.27662000	  5.71064800
349	1	 18.55960600	 15.70428200	  7.13831000
350	1	 19.98726800	 14.27662000	  5.71064800
351	1	 21.41493000	 15.70428200	  7.13831000
352	1	  0.00000000	 17.13194400	  5.71064800
353	1	  1.42766200	 18.55960600	  7.13831000
354	1	  2.85532400	 17.13194400	  5.71064800
355	1	  4.28298600	 18.55960600	  7.13831000
356	1	  5.71064800	 17.13194400	  5.71064800
357	1	  7.13831000	 18.55960600	  7.13831000
358	1	  8.56597200	 17.13194400	  5.71064800
359	1	  9.99363400	 18.55960600	  7.13831000
360	1	 11.42129600	 17.13194400	  5.71064800
361	1	 12.84895800	 18.55960600	  7.13831000
362	1	 14.27662000	 17.13194400	  5.71064800
363	1	 15.70428200	 18.55960600	  7.13831000
364	1	 17.13194400	 17.13194400	  5.71064800
365	1	 18.55960600	 18.55960600	  7.13831000
366	1	 19.98726800	 17.13194400	  5.71064800
367	1	 21.41493000	 18.55960600	  7.13831000
368	1	  0.00000000	 19.98726800	  5.71064800
369	1	  1.42766200	 21.41493000	  7.13831000
370	1	  2.85532400	 19.98726800	  5.71064800
371	1	  4.28298600	 21.41493000	  7.13831000
372	1	  5.71064800	 19.98726800	  5.71064800
373	1	  7.13831000	 21.41493000	  7.13831000
374	1	  8.56597200	 19.98726800	  5.71064800
375	1	  9.99363400	 21.41493000	  7.13831000
376	1	 11.42129600	 19.98726800	  5.71064800
377	1	 12.84895800	 21.41493000	  7.13831000
378	1	 14.27662000	 19.98726800	  5.71064800
379	1	 15.70428200	 21.41493000	  7.13831000
380	1	 17.13194400	 19.98726800	  5.71064800
381	1	 18.55960600	 21.41493000	  7.13831000
382	1	 19.98726800	 19.98726800	  5.71064800
383	1	 21.41493000	 21.41493000	  7.13831000
384	1	  0.00000000	  0.00000000	  8.56597200
385	1	  1.42766200	  1.42766200	  9.99363400
386	1	  2.85532400	  0.00000000	  8.56597200
387	1	  4.28298600	  1.42766200	  9.99363400
388	1	  5.71064800	  0.00000000	  8.56597200
389	1	  7.13831000	  1.42766200	  9.99363400
390	1	  8.56597200	  0.00000000	  8.56597200
391	1	  9.99363400	  1.42766200	  9.99363400
392	1	 11.42129600	  0.00000000	  8.56597200
393	1	 12.84895800	  1.42766200	  9.99363400
394	1	 14.27662000	  0.00000000	  8.56597200
395	1	 15.70428200	  1.42766200	  9.99363400
396	1	 17.13194400	  0.00000000	  8.56597200
397	1	 18.55960600	  1.42766200	  9.99363400
398	1	 19.98726800	  0.00000000	  8.56597200
399	1	 21.41493000	  1.42766200	  9.99363400
400	1	  0.00000000	  2.85532400	  8.56597200
401	1	  1.42766200	  4.28298600	  9.99363400
402	1	  2.85532400	  2.85532400	  8.56597200
403	1	  4.28298600	  4.28298600	  9.99363400
404	1	  5.71064800	  2.85532400	  8.56597200
405	1	  7.13831000	  4.28298600	  9.99363400
406	1	  8.56597200	  2.85532400	  8.56597200
407	1	  9.99363400	  4.28298600	  9.99363400
408	1	 11.42129600	  2.85532400	  8.56597200
409	1	 12.84895800	  4.28298600	  9.99363400
410	1	 14.27662000	  2.85532400	  8.56597200
411	1	 15.70428200	  4.28298600	  9.99363400
412	1	 17.13194400	  2.85532400	  8.56597200
413	1	 18.55960600	  4.28298600	  9.99363400
414	1	 19.98726800	  2.85532400	  8.56597200
415	1	 21.41493000	  4.28298600	  9.99363400
416	1	  0.00000000	  5.71064800	  8.56597200
417	1	  1.42766200	  7.13831000	  9.99363400
418	1	  2.85532400	  5.71064800	  8.56597200
419	1	  4.28298600	  7.13831000	  9.99363400
420	1	  5.71064800	  5.71064800	  8.56597200
421	1	  7.13831000	  7.13831000	  9.99363400
422	1	  8.56597200	  5.71064800	  8.56597200
423	1	  9.99363400	  7.13831000	  9.99363400
424	1	 12.84895800	  7.13831000	  9.99363400
425	1	 14.27662000	  5.71064800	  8.56597200
426	1	 15.70428200	  7.13831000	  9.99363400
427	1	 17.13194400	  5.71064800	  8.56597200
428	1	 18.55960600	  7.13831000	  9.99363400
429	1	 19.98726800	  5.71064800	  8.56597200
430	1	 21.41493000	  7.13831000	  9.99363400
431	1	  0.00000000	  8.56597200	  8.56597200
432	1	  1.42766200	  9.99363400	  9.99363400
433	1	  2.85532400	  8.56597200	  8.56597200
434	1	  4.28298600	  9.99363400	  9.99363400
435	1	  5.71064800	  8.56597200	  8.56597200
436	1	  7.13831000	  9.99363400	  9.99363400
437	1	  8.56597200	  8.56597200	  8.56597200
438	1	  9.99363400	  9.99363400	  9.99363400
439	1	 11.42129600	  8.56597200	  8.56597200
440	1	 12.84895800	  9.99363400	  9.99363400
441	1	 14.27662000	  8.56597200	  8.56597200
442	1	 15.70428200	  9.99363400	  9.99363400
443	1	 17.13194400	  8.56597200	  8.56597200
444	1	 18.55960600	  9.99363400	  9.99363400
445	1	 19.98726800	  8.56597200	  8.56597200
446	1	 21.41493000	  9.99363400	  9.99363400
447	1	  0.00000000	 11.42129600	  8.56597200
448	1	  1.42766200	 12.84895800	  9.99363400
449	1	  2.85532400	 11.42129600	  8.56597200
450	1	  4.28298600	 12.84895800	  9.99363400
451	1	  5.71064800	 11.42129600	  8.56597200
452	1	  7.13831000	 12.84895800	  9.99363400
453	1	  8.56597200	 11.42129600	  8.56597200
454	1	  9.99363400	 12.84895800	  9.99363400
455	1	 11.42129600	 11.42129600	  8.56597200
456	1	 12.84895800	 12.84895800	  9.99363400
457	1	 14.27662000	 11.42129600	  8.56597200
458	1	 15.70428200	 12.84895800	  9.99363400
459	1	 17.13194400	 11.42129600	  8.56597200
460	1	 18.55960600	 12.84895800	  9.99363400
461	1	 19.98726800	 11.42129600	  8.56597200
462	1	 21.41493000	 12.84895800	  9.99363400
463	1	  0.00000000	 14.27662000	  8.56597200
464	1	  1.42766200	 15.70428200	  9.99363400
465	1	  2.85532400	 14.27662000	  8.56597200
466	1	  4.28298600	 15.70428200	  9.99363400
467	1	  5.71064800	 14.27662000	  8.56597200
468	1	  7.13831000	 15.70428200	  9.99363400
469	1	  8.56597200	 14.27662000	  8.56597200
470	1	  9.99363400	 15.70428200	  9.99363400
471	1	 11.42129600	 14.27662000	  8.56597200
472	1	 12.84895800	 15.70428200	  9.99363400
473	1	 14.27662000	 14.27662000	  8.56597200
474	1	 15.70428200	 15.70428200	  9.99363400
475	1	 17.13194400	 14.27662000	  8.56597200
476	1	 18.55960600	 15.70428200	  9.99363400
477	1	 19.98726800	 14.27662000	  8.56597200
478	1	 21.41493000	 15.70428200	  9.99363400
479	1	  0.00000000	 17.13194400	  8.56597200
480	1	  1.42766200	 18.55960600	  9.99363400
481	1	  2.85532400	 17.13194400	  8.56597200
482	1	  4.28298600	 18.55960600	  9.99363400
483	1	  5.71064800	 17.13194400	  8.56597200
484	1	  7.13831000	 18.55960600	  9.99363400
485	1	  8.56597200	 17.13194400	  8.56597200
486	1	  9.99363400	 18.55960600	  9.99363400
487	1	 11.42129600	 17.13194400	  8.56597200
488	1	 12.84895800	 18.55960600	  9.99363400
489	1	 14.27662000	 17.13194400	  8.56597200
490	1	 15.70428200	 18.55960600	  9.99363400
491	1	 17.13194400	 17.13194400	  8.56597200
492	1	 18.55960600	 18.55960600	  9.99363400
493	1	 19.98726800	 17.13194400	  8.56597200
494	1	 21.41493000	 18.55960600	  9.99363400
495	1	  0.00000000	 19.98726800	  8.56597200
496	1	  1.42766200	 21.41493000	  9.99363400
497	1	  2.85532400	 19.98726800	  8.56597200
498	1	  4.28298600	 21.41493000	  9.99363400
499	1	  5.71064800	 19.98726800	  8.56597200
500	1	  7.13831000	 21.41493000	  9.99363400
501	1	  8.56597200	 19.98726800	  8.56597200
502	1	  9.99363400	 21.41493000	  9.99363400
503	1	 11.42129600	 19.98726800	  8.56597200
504	1	 12.84895800	 21.41493000	  9.99363400
505	1	 14.27662000	 19.98726800	  8.56597200
506	1	 15.70428200	 21.41493000	  9.99363400
507	1	 17.13194400	 19.98726800	  8.56597200
508	1	 18.55960600	 21.41493000	  9.99363400
509	1	 19.98726800	 19.98726800	  8.56597200
510	1	 21.41493000	 21.41493000	  9.99363400
511	1	  0.00000000	  0.00000000	 11.42129600
512	1	  1.42766200	  1.42766200	 12.84895800
513	1	  2.85532400	  0.00000000	 11.42129600
514	1	  4.28298600	  1.42766200	 12.84895800
515	1	  5.71064800	  0.00000000	 11.42129600
516	1	  7.13831000	  1.42766200	 12.84895800
517	1	  8.56597200	  0.00000000	 11.42129600
518	1	  9.99363400	  1.42766200	 12.84895800
519	1	 11.42129600	  0.00000000	 11.42129600
520	1	 12.84895800	  1.42766200	 12.84895800
521	1	 14.27662000	  0.00000000	 11.42129600
522	1	 15.70428200	  1.42766200	 12.84895800
523	1	 17.13194400	  0.00000000	 11.42129600
524	1	 18.55960600	  1.42766200	 12.84895800
525	1	 19.98726800	  0.00000000	 11.42129600
526	1	 21.41493000	  1.42766200	 12.84895800
527	1	  0.00000000	  2.85532400	 11.42129600
528	1	  1.42766200	  4.28298600	 12.84895800
529	1	  2.85532400	  2.85532400	 11.42129600
530	1	  4.28298600	  4.28298600	 12.84895800
531	1	  5.71064800	  2.85532400	 11.42129600
532	1	  7.13831000	  4.28298600	 12.84895800
533	1	  8.56597200	  2.85532400	 11.42129600
534	1	  9.99363400	  4.28298600	 12.84895800
535	1	 11.42129600	  2.85532400	 11.42129600
536	1	 12.84895800	  4.28298600	 12.84895800
537	1	 14.27662000	  2.85532400	 11.42129600
538	1	 15.70428200	  4.28298600	 12.84895800
539	1	 17.13194400	  2.85532400	 11.42129600
540	1	 18.55960600	  4.28298600	 12.84895800
541	1	 19.98726800	  2.85532400	 11.42129600
542	1	 21.41493000	  4.28298600	 12.84895800
543	1	  0.00000000	  5.71064800	 11.42129600
544	1	  1.42766200	  7.13831000	 12.84895800
545	1	  2.85532400	  5.71064800	 11.42129600
546	1	  4.28298600	  7.13831000	 12.84895800
547	1	  5.71064800	  5.71064800	 11.42129600
548	1	  7.13831000	  7.13831000	 12.84895800
549	1	  8.56597200	  5.71064800	 11.42129600
550	1	  9.99363400	  7.13831000	 12.84895800
551	1	 11.42129600	  5.71064800	 11.42129600
552	1	 12.84895800	  7.13831000	 12.84895800
553	1	 14.27662000	  5.71064800	 11.42129600
554	1	 15.70428200	  7.13831000	 12.84895800
555	1	 17.13194400	  5.71064800	 11.42129600
556	1	 18.55960600	  7.13831000	 12.84895800
557	1	 19.98726800	  5.71064800	 11.42129600
558	1	 21.41493000	  7.13831000	 12.84895800
559	1	  0.00000000	  8.56597200	 11.42129600
560	1	  1.42766200	  9.99363400	 12.84895800
561	1	  2.85532400	  8.56597200	 11.42129600
562	1	  4.28298600	  9.99363400	 12.84895800
563	1	  5.71064800	  8.56597200	 11.42129600
564	1	  7.13831000	  9.99363400	 12.84895800
565	1	  8.56597200	  8.56597200	 11.42129600
566	1	  9.99363400	  9.99363400	 12.84895800
567	1	 11.42129600	  8.56597200	 11.42129600
568	1	 12.84895800	  9.99363400	 12.84895800
569	1	 14.27662000	  8.56597200	 11.42129600
570	1	 15.70428200	  9.99363400	 12.84895800
571	1	 17.13194400	  8.56597200	 11.42129600
572	1	 18.55960600	  9.99363400	 12.84895800
573	1	 19.98726800	  8.56597200	 11.42129600
574	1	 21.41493000	  9.99363400	 12.84895800
575	1	  0.00000000	 11.42129600	 11.42129600
576	1	  1.42766200	 12.84895800	 12.84895800
577	1	  2.85532400	 11.42129600	 11.42129600
578	1	  4.28298600	 12.84895800	 12.84895800
579	1	  5.71064800	 11.42129600	 11.42129600
580	1	  7.13831000	 12.84895800	 12.84895800
581	1	  8.56597200	 11.42129600	 11.42129600
582	1	  9.99363400	 12.84895800	 12.84895800
583	1	 11.42129600	 11.42129600	 11.42129600
584	1	 12.84895800	 12.84895800	 12.84895800
585	1	 14.27662000	 11.42129600	 11.42129600
586	1	 15.70428200	 12.84895800	 12.84895800
587	1	 17.13194400	 11.42129600	 11.42129600
588	1	 18.55960600	 12.84895800	 12.84895800
589	1	 19.98726800	 11.42129600	 11.42129600
590	1	 21.41493000	 12.84895800	 12.84895800
591	1	  0.00000000	 14.27662000	 11.42129600
592	1	  1.42766200	 15.70428200	 12.84895800
593	1	  2.85532400	 14.27662000	 11.42129600
594	1	  4.28298600	 15.70428200	 12.84895800
595	1	  5.71064800	 14.27662000	 11.42129600
596	1	  7.13831000	 15.70428200	 12.84895800
597	1	  8.56597200	 14.27662000	 11.42129600
598	1	  9.99363400	 15.70428200	 12.84895800
599	1	 11.42129600	 14.27662000	 11.42129600
600	1	 12.84895800	 15.70428200	 12.84895800
601	1	 14.27662000	 14.27662000	 11.42129600
602	1	 15.70428200	 15.70428200	 12.84895800
603	1	 17.13194400	 14.27662000	 11.42129600
604	1	 18.55960600	 15.70428200	 12.84895800
605	1	 19.98726800	 14.27662000	 11.42129600
606	1	 21.41493000	 15.70428200	 12.84895800
607	1	  0.00000000	 17.13194400	 11.42129600
608	1	  1.42766200	 18.55960600	 12.84895800
609	1	  2.85532400	 17.13194400	 11.42129600
610	1	  4.28298600	 18.55960600	 12.84895800
611	1	  5.71064800	 17.13194400	 11.42129600
612	1	  7.13831000	 18.55960600	 12.84895800
613	1	  8.56597200	 17.13194400	 11.42129600
614	1	  9.99363400	 18.55960600	 12.84895800
615	1	 11.42129600	 17.13194400	 11.42129600
616	1	 12.84895800	 18.55960600	 12.84895800
617	1	 14.27662000	 17.13194400	 11.42129600
618	1	 15.70428200	 18.55960600	 12.84895800
619	1	 17.13194400	 17.13194400	 11.42129600
620	1	 18.55960600	 18.55960600	 12.84895800
621	1	 19.98726800	 17.13194400	 11.42129600
622	1	 21.41493000	 18.55960600	 12.84895800
623	1	  0.00000000	 19.98726800	 11.42129600
624	1	  1.42766200	 21.41493000	 12.84895800
625	1	  2.85532400	 19.98726800	 11.42129600
626	1	  4.28298600	 21.41493000	 12.84895800
627	1	  5.71064800	 19.98726800	 11.42129600
628	1	  7.13831000	 21.41493000	 12.84895800
629	1	  8.56597200	 19.98726800	 11.42129600
630	1	  9.99363400	 21.41493000	 12.84895800
631	1	 11.42129600	 19.98726800	 11.42129600
632	1	 12.84895800	 21.41493000	 12.84895800
633	1	 14.27662000	 19.98726800	 11.42129600
634	1	 15.70428200	 21.41493000	 12.84895800
635	1	 17.13194400	 19.98726800	 11.42129600
636	1	 18.55960600	 21.41493000	 12.84895800
637	1	 19.98726800	 19.98726800	 11.42129600
638	1	 21.41493000	 21.41493000	 12.84895800
639	1	  0.00000000	  0.00000000	 14.27662000
640	1	  1.42766200	  1.42766200	 15.70428200
641	1	  2.85532400	  0.00000000	 14.27662000
642	1	  4.28298600	  1.42766200	 15.70428200
643	1	  5.71064800	  0.00000000	 14.27662000
644	1	  7.13831000	  1.42766200	 15.70428200
645	1	  8.56597200	  0.00000000	 14.27662000
646	1	  9.99363400	  1.42766200	 15.70428200
647	1	 11.42129600	  0.00000000	 14.27662000
648	1	 12.84895800	  1.42766200	 15.70428200
649	1	 14.27662000	  0.00000000	 14.27662000
650	1	 15.70428200	  1.42766200	 15.70428200
651	1	 17.13194400	  0.00000000	 14.27662000
652	1	 18.55960600	  1.42766200	 15.70428200
653	1	 19.98726800	  0.00000000	 14.27662000
654	1	 21.41493000	  1.42766200	 15.70428200
655	1	  0.00000000	  2.85532400	 14.27662000
656	1	  1.42766200	  4.28298600	 15.70428200
657	1	  2.85532400	  2.85532400	 14.27662000
658	1	  4.28298600	  4.28298600	 15.70428200
659	1	  5.71064800	  2.85532400	 14.27662000
660	1	  7.13831000	  4.28298600	 15.70428200
661	1	  8.56597200	  2.85532400	 14.27662000
662	1	  9.99363400	  4.28298600	 15.70428200
663	1	 11.42129600	  2.85532400	 14.27662000
664	1	 12.84895800	  4.28298600	 15.70428200
665	1	 14.27662000	  2.85532400	 14.27662000
666	1	 15.70428200	  4.28298600	 15.70428200
667	1	 17.13194400	  2.85532400	 14.27662000
668	1	 18.55960600	  4.28298600	 15.70428200
669	1	 19.98726800	  2.85532400	 14.27662000
670	1	 21.41493000	  4.28298600	 15.70428200
671	1	  0.00000000	  5.71064800	 14.27662000
672	1	  1.42766200	  7.13831000	 15.70428200
673	1	  2.85532400	  5.71064800	 14.27662000
674	1	  4.28298600	  7.13831000	 15.70428200
675	1	  5.71064800	  5.71064800	 14.27662000
676	1	  7.13831000	  7.13831000	 15.70428200
677	1	  8.56597200	  5.71064800	 14.27662000
678	1	  9.99363400	  7.13831000	 15.70428200
679	1	 11.42129600	  5.71064800	 14.27662000
680	1	 12.84895800	  7.13831000	 15.70428200
681	1	 14.27662000	  5.71064800	 14.27662000
682	1	 15.70428200	  7.13831000	 15.70428200
683	1	 17.13194400	  5.71064800	 14.27662000
684	1	 18.55960600	  7.13831000	 15.70428200
685	1	 19.98726800	  5.71064800	 14.27662000
686	1	 21.41493000	  7.13831000	 15.70428200
687	1	  0.00000000	  8.56597200	 14.27662000
688	1	  1.42766200	  9.99363400	 15.70428200
689	1	  2.85532400	  8.56597200	 14.27662000
690	1	  4.28298600	  9.99363400	 15.70428200
691	1	  5.71064800	  8.56597200	 14.27662000
692	1	  7.13831000	  9.99363400	 15.70428200
693	1	  8.56597200	  8.56597200	 14.27662000
694	1	  9.99363400	  9.99363400	 15.70428200
695	1	 11.42129600	  8.56597200	 14.27662000
696	1	 12.84895800	  9.99363400	 15.70428200
697	1	 14.27662000	  8.56597200	 14.27662000
698	1	 15.70428200	  9.99363400	 15.70428200
699	1	 17.13194400	  8.56597200	 14.27662000
700	1	 18.55960600	  9.99363400	 15.70428200
701	1	 19.98726800	  8.56597200	 14.27662000
702	1	 21.41493000	  9.99363400	 15.70428200
703	1	  0.00000000	 11.42129600	 14.27662000
704	1	  1.42766200	 12.84895800	 15.70428200
705	1	  2.85532400	 11.42129600	 14.27662000
706	1	  4.28298600	 12.84895800	 15.70428200
707	1	  5.71064800	 11.42129600	 14.27662000
708	1	  7.13831000	 12.84895800	 15.70428200
709	1	  8.56597200	 11.42129600	 14.27662000
710	1	  9.99363400	 12.84895800	 15.70428200
711	1	 11.42129600	 11.42129600	 14.27662000
712	1	 12.84895800	 12.84895800	 15.70428200
713	1	 14.27662000	 11.42129600	 14.27662000
714	1	 15.70428200	 12.84895800	 15.70428200
715	1	 17.13194400	 11.42129600	 14.27662000
716	1	 18.55960600	 12.84895800	 15.70428200
717	1	 19.98726800	 11.42129600	 14.27662000
718	1	 21.41493000	 12.84895800	 15.70428200
719	1	  0.00000000	 14.27662000	 14.27662000
720	1	  1.42766200	 15.70428200	 15.70428200
721	1	  2.85532400	 14.27662000	 14.27662000
722	1	  4.28298600	 15.70428200	 15.70428200
723	1	  5.71064800	 14.27662000	 14.27662000
724	1	  7.13831000	 15.70428200	 15.70428200
725	1	  8.56597200	 14.27662000	 14.27662000
726	1	  9.99363400	 15.70428200	 15.70428200
727	1	 11.42129600	 14.27662000	 14.27662000
728	1	 12.84895800	 15.70428200	 15.70428200
729	1	 14.27662000	 14.27662000	 14.27662000
730	1	 15.70428200	 15.70428200	 15.70428200
731	1	 17.13194400	 14.27662000	 14.27662000
732	1	 18.55960600	 15.70428200	 15.70428200
733	1	 19.98726800	 14.27662000	 14.27662000
734	1	 21.41493000	 15.70428200	 15.70428200
735	1	  0.00000000	 17.13194400	 14.27662000
736	1	  1.42766200	 18.55960600	 15.70428200
737	1	  2.85532400	 17.13194400	 14.27662000
738	1	  4.28298600	 18.55960600	 15.70428200
739	1	  5.71064800	 17.13194400	 14.27662000
740	1	  7.13831000	 18.55960600	 15.70428200
741	1	  8.56597200	 17.13194400	 14.27662000
742	1	  9.99363400	 18.55960600	 15.70428200
743	1	 11.42129600	 17.13194400	 14.27662000
744	1	 12.84895800	 18.55960600	 15.70428200
745	1	 14.27662000	 17.13194400	 14.27662000
746	1	 15.70428200	 18.55960600	 15.70428200
747	1	 17.13194400	 17.13194400	 14.27662000
748	1	 18.55960600	 18.55960600	 15.70428200
749	1	 19.98726800	 17.13194400	 14.27662000
750	1	 21.41493000	 18.55960600	 15.70428200
751	1	  0.00000000	 19.98726800	 14.27662000
752	1	  1.42766200	 21.41493000	 15.70428200
753	1	  2.85532400	 19.98726800	 14.27662000
754	1	  4.28298600	 21.41493000	 15.70428200
755	1	  5.71064800	 19.98726800	 14.27662000
756	1	  7.13831000	 21.41493000	 15.70428200
757	1	  8.56597200	 19.98726800	 14.27662000
758	1	  9.99363400	 21.41493000	 15.70428200
759	1	 11.42129600	 19.98726800	 14.27662000
760	1	 12.84895800	 21.41493000	 15.70428200
761	1	 14.27662000	 19.98726800	 14.27662000
762	1	 15.70428200	 21.41493000	 15.70428200
763	1	 17.13194400	 19.98726800	 14.27662000
764	1	 18.55960600	 21.41493000	 15.70428200
765	1	 19.98726800	 19.98726800	 14.27662000
766	1	 21.41493000	 21.41493000	 15.70428200
767	1	  0.00000000	  0.00000000	 17.13194400
768	1	  1.42766200	  1.42766200	 18.55960600
769	1	  2.85532400	  0.00000000	 17.13194400
770	1	  4.28298600	  1.42766200	 18.55960600
771	1	  5.71064800	  0.00000000	 17.13194400
772	1	  7.13831000	  1.42766200	 18.55960600
773	1	  8.56597200	  0.00000000	 17.13194400
774	1	  9.99363400	  1.42766200	 18.55960600
775	1	 11.42129600	  0.00000000	 17.13194400
776	1	 12.84895800	  1.42766200	 18.55960600
777	1	 14.27662000	  0.00000000	 17.13194400
778	1	 15.70428200	  1.42766200	 18.55960600
779	1	 17.13194400	  0.00000000	 17.13194400
780	1	 18.55960600	  1.42766200	 18.55960600
781	1	 19.98726800	  0.00000000	 17.13194400
782	1	 21.41493000	  1.42766200	 18.55960600
783	1	  0.00000000	  2.85532400	 17.13194400
784	1	  1.42766200	  4.28298600	 18.55960600
785	1	  2.85532400	  2.85532400	 17.13194400
786	1	  4.28298600	  4.28298600	 18.55960600
787	1	  5.71064800	  2.85532400	 17.13194400
788	1	  7.13831000	  4.28298600	 18.55960600
789	1	  8.56597200	  2.85532400	 17.13194400
790	1	  9.99363400	  4.28298600	 18.55960600
791	1	 11.42129600	  2.85532400	 17.13194400
792	1	 12.84895800	  4.28298600	 18.55960600
793	1	 14.27662000	  2.85532400	 17.13194400
794	1	 15.70428200	  4.28298600	 18.55960600
795	1	 17.13194400	  2.85532400	 17.13194400
796	1	 18.55960600	  4.28298600	 18.55960600
797	1	 19.98726800	  2.85532400	 17.13194400
798	1	 21.41493000	  4.28298600	 18.55960600
799	1	  0.00000000	  5.71064800	 17.13194400
800	1	  1.42766200	  7.13831000	 18.55960600
801	1	  2.85532400	  5.71064800	 17.13194400
802	1	  4.28298600	  7.13831000	 18.55960600
803	1	  5.71064800	  5.71064800	 17.13194400
804	1	  7.13831000	  7.13831000	 18.55960600
805	1	  8.56597200	  5.71064800	 17.13194400
806	1	  9.99363400	  7.13831000	 18.55960600
807	1	 11.42129600	  5.71064800	 17.13194400
808	1	 12.84895800	  7.13831000	 18.55960600
809	1	 14.27662000	  5.71064800	 17.13194400
810	1	 15.70428200	  7.13831000	 18.55960600
811	1	 17.13194400	  5.71064800	 17.13194400
812	1	 18.55960600	  7.13831000	 18.55960600
813	1	 19.98726800	  5.71064800	 17.13194400
814	1	 21.41493000	  7.13831000	 18.55960600
815	1	  0.00000000	  8.56597200	 17.13194400
816	1	  1.42766200	  9.99363400	 18.55960600
817	1	  2.85532400	  8.56597200	 17.13194400
818	1	  4.28298600	  9.99363400	 18.55960600
819	1	  5.71064800	  8.56597200	 17.13194400
820	1	  7.13831000	  9.99363400	 18.55960600
821	1	  8.56597200	  8.56597200	 17.13194400
822	1	  9.99363400	  9.99363400	 18.55960600
823	1	 11.42129600	  8.56597200	 17.13194400
824	1	 12.84895800	  9.99363400	 18.55960600
825	1	 14.27662000	  8.56597200	 17.13194400
826	1	 15.70428200	  9.99363400	 18.55960600
827	1	 17.13194400	  8.56597200	 17.13194400
828	1	 18.55960600	  9.99363400	 18.55960600
829	1	 19.98726800	  8.56597200	 17.13194400
830	1	 21.41493000	  9.99363400	 18.55960600
831	1	  0.00000000	 11.42129600	 17.13194400
832	1	  1.42766200	 12.84895800	 18.55960600
833	1	  2.85532400	 11.42129600	 17.13194400
834	1	  4.28298600	 12.84895800	 18.55960600
835	1	  5.71064800	 11.42129600	 17.13194400
836	1	  7.13831000	 12.84895800	 18.55960600
837	1	  8.56597200	 11.42129600	 17.13194400
838	1	  9.99363400	 12.84895800	 18.55960600
839	1	 11.42129600	 11.42129600	 17.13194400
840	1	 12.84895800	 12.84895800	 18.55960600
841	1	 14.27662000	 11.42129600	 17.13194400
842	1	 15.70428200	 12.84895800	 18.55960600
843	1	 17.13194400	 11.42129600	 17.13194400
844	1	 18.55960600	 12.84895800	 18.55960600
845	1	 19.98726800	 11.42129600	 17.13194400
846	1	 21.41493000	 12.84895800	 18.55960600
847	1	  0.00000000	 14.27662000	 17.13194400
848	1	  1.42766200	 15.70428200	 18.55960600
849	1	  2.85532400	 14.27662000	 17.13194400
850	1	  4.28298600	 15.70428200	 18.55960600
851	1	  5.71064800	 14.27662000	 17.13194400
852	1	  7.13831000	 15.70428200	 18.55960600
853	1	  8.56597200	 14.27662000	 17.13194400
854	1	  9.99363400	 15.70428200	 18.55960600
855	1	 11.42129600	 14.27662000	 17.13194400
856	1	 12.84895800	 15.70428200	 18.55960600
857	1	 14.27662000	 14.27662000	 17.13194400
858	1	 15.70428200	 15.70428200	 18.55960600
859	1	 17.13194400	 14.27662000	 17.13194400
860	1	 18.55960600	 15.70428200	 18.55960600
861	1	 19.98726800	 14.27662000	 17.13194400
862	1	 21.41493000	 15.70428200	 18.55960600
863	1	  0.00000000	 17.13194400	 17.13194400
864	1	  1.42766200	 18.55960600	 18.55960600
865	1	  2.85532400	 17.13194400	 17.13194400
866	1	  4.28298600	 18.55960600	 18.55960600
867	1	  5.71064800	 17.13194400	 17.13194400
868	1	  7.13831000	 18.55960600	 18.55960600
869	1	  8.56597200	 17.13194400	 17.13194400
870	1	  9.99363400	 18.55960600	 18.55960600
871	1	 11.42129600	 17.13194400	 17.13194400
872	1	 12.84895800	 18.55960600	 18.55960600
873	1	 14.27662000	 17.13194400	 17.13194400
874	1	 15.70428200	 18.55960600	 18.55960600
875	1	 17.13194400	 17.13194400	 17.13194400
876	1	 18.55960600	 18.55960600	 18.55960600
877	1	 19.98726800	 17.13194400	 17.13194400
878	1	 21.41493000	 18.55960600	 18.55960600
879	1	  0.00000000	 19.98726800	 17.13194400
880	1	  1.42766200	 21.41493000	 18.55960600
881	1	  2.85532400	 19.98726800	 17.13194400
882	1	  4.28298600	 21.41493000	 18.55960600
883	1	  5.71064800	 19.98726800	 17.13194400
884	1	  7.13831000	 21.41493000	 18.55960600
885	1	  8.56597200	 19.98726800	 17.13194400
886	1	  9.99363400	 21.41493000	 18.55960600
887	1	 11.42129600	 19.98726800	 17.13194400
888	1	 12.84895800	 21.41493000	 18.55960600
889	1	 14.27662000	 19.98726800	 17.13194400
890	1	 15.70428200	 21.41493000	 18.55960600
891	1	 17.13194400	 19.98726800	 17.13194400
892	1	 18.55960600	 21.41493000	 18.55960600
893	1	 19.98726800	 19.98726800	 17.13194400
894	1	 21.41493000	 21.41493000	 18.55960600
895	1	  0.00000000	  0.00000000	 19.98726800
896	1	  1.42766200	  1.42766200	 21.41493000
897	1	  2.85532400	  0.00000000	 19.98726800
898	1	  4.28298600	  1.42766200	 21.41493000
899	1	  5.71064800	  0.00000000	 19.98726800
900	1	  7.13831000	  1.42766200	 21.41493000
901	1	  8.56597200	  0.00000000	 19.98726800
902	1	  9.99363400	  1.42766200	 21.41493000
903	1	 11.42129600	  0.00000000	 19.98726800
904	1	 12.84895800	  1.42766200	 21.41493000
905	1	 14.27662000	  0.00000000	 19.98726800
906	1	 15.70428200	  1.42766200	 21.41493000
907	1	 17.13194400	  0.00000000	 19.98726800
908	1	 18.55960600	  1.42766200	 21.41493000
909	1	 19.98726800	  0.00000000	 19.98726800
910	1	 21.41493000	  1.42766200	 21.41493000
911	1	  0.00000000	  2.85532400	 19.98726800
912	1	  1.42766200	  4.28298600	 21.41493000
913	1	  2.85532400	  2.85532400	 19.98726800
914	1	  4.28298600	  4.28298600	 21.41493000
915	1	  5.71064800	  2.85532400	 19.98726800
916	1	  7.13831000	  4.28298600	 21.41493000
917	1	  8.56597200	  2.85532400	 19.98726800
918	1	  9.99363400	  4.28298600	 21.41493000
919	1	 11.42129600	  2.85532400	 19.98726800
920	1	 12.84895800	  4.28298600	 21.41493000
921	1	 14.27662000	  2.85532400	 19.98726800
922	1	 15.70428200	  4.28298600	 21.41493000
923	1	 17.13194400	  2.85532400	 19.98726800
924	1	 18.55960600	  4.28298600	 21.41493000
925	1	 19.98726800	  2.85532400	 19.98726800
926	1	 21.41493000	  4.28298600	 21.41493000
927	1	  0.00000000	  5.71064800	 19.98726800
928	1	  1.42766200	  7.13831000	 21.41493000
929	1	  2.85532400	  5.71064800	 19.98726800
930	1	  4.28298600	  7.13831000	 21.41493000
931	1	  5.71064800	  5.71064800	 19.98726800
932	1	  7.13831000	  7.13831000	 21.41493000
933	1	  8.56597200	  5.71064800	 19.98726800
934	1	  9.99363400	  7.13831000	 21.41493000
935	1	 11.42129600	  5.71064800	 19.98726800
936	1	 12.84895800	  7.13831000	 21.41493000
937	1	 14.27662000	  5.71064800	 19.98726800
938	1	 15.70428200	  7.13831000	 21.41493000
939	1	 17.13194400	  5.71064800	 19.98726800
940	1	 18.55960600	  7.13831000	 21.41493000
941	1	 19.98726800	  5.71064800	 19.98726800
942	1	 21.41493000	  7.13831000	 21.41493000
943	1	  0.00000000	  8.56597200	 19.98726800
944	1	  1.42766200	  9.99363400	 21.41493000
945	1	  2.85532400	  8.56597200	 19.98726800
946	1	  4.28298600	  9.99363400	 21.41493000
947	1	  5.71064800	  8.56597200	 19.98726800
948	1	  7.13831000	  9.99363400	 21.41493000
949	1	  8.56597200	  8.56597200	 19.98726800
950	1	  9.99363400	  9.99363400	 21.41493000
951	1	 11.42129600	  8.56597200	 19.98726800
952	1	 12.84895800	  9.99363400	 21.41493000
953	1	 14.27662000	  8.56597200	 19.98726800
954	1	 15.70428200	  9.99363400	 21.41493000
955	1	 17.13194400	  8.56597200	 19.98726800
956	1	 18.55960600	  9.99363400	 21.41493000
957	1	 19.98726800	  8.56597200	 19.98726800
958	1	 21.41493000	  9.99363400	 21.41493000
959	1	  0.00000000	 11.42129600	 19.98726800
960	1	  1.42766200	 12.84895800	 21.41493000
961	1	  2.85532400	 11.42129600	 19.98726800
962	1	  4.28298600	 12.84895800	 21.41493000
963	1	  5.71064800	 11.42129600	 19.98726800
964	1	  7.13831000	 12.84895800	 21.41493000
965	1	  8.56597200	 11.42129600	 19.98726800
966	1	  9.99363400	 12.84895800	 21.41493000
967	1	 11.42129600	 11.42129600	 19.98726800
968	1	 12.84895800	 12.84895800	 21.41493000
969	1	 14.27662000	 11.42129600	 19.98726800
970	1	 15.70428200	 12.84895800	 21.41493000
971	1	 17.13194400	 11.42129600	 19.98726800
972	1	 18.55960600	 12.84895800	 21.41493000
973	1	 19.98726800	 11.42129600	 19.98726800
974	1	 21.41493000	 12.84895800	 21.41493000
975	1	  0.00000000	 14.27662000	 19.98726800
976	1	  1.42766200	 15.70428200	 21.41493000
977	1	  2.85532400	 14.27662000	 19.98726800
978	1	  4.28298600	 15.70428200	 21.41493000
979	1	  5.71064800	 14.27662000	 19.98726800
980	1	  7.13831000	 15.70428200	 21.41493000
981	1	  8.56597200	 14.27662000	 19.98726800
982	1	  9.99363400	 15.70428200	 21.41493000
983	1	 11.42129600	 14.27662000	 19.98726800
984	1	 12.84895800	 15.70428200	 21.41493000
985	1	 14.27662000	 14.27662000	 19.98726800
986	1	 15.70428200	 15.70428200	 21.41493000
987	1	 17.13194400	 14.27662000	 19.98726800
988	1	 18.55960600	 15.70428200	 21.41493000
989	1	 19.98726800	 14.27662000	 19.98726800
990	1	 21.41493000	 15.70428200	 21.41493000
991	1	  0.00000000	 17.13194400	 19.98726800
992	1	  1.42766200	 18.55960600	 21.41493000
993	1	  2.85532400	 17.13194400	 19.98726800
994	1	  4.28298600	 18.55960600	 21.41493000
995	1	  5.71064800	 17.13194400	 19.98726800
996	1	  7.13831000	 18.55960600	 21.41493000
997	1	  8.56597200	 17.13194400	 19.98726800
998	1	  9.99363400	 18.55960600	 21.41493000
999	1	 11.42129600	 17.13194400	 19.98726800
1000	1	 12.84895800	 18.55960600	 21.41493000
1001	1	 14.27662000	 17.13194400	 19.98726800
1002	1	 15.70428200	 18.55960600	 21.41493000
1003	1	 17.13194400	 17.13194400	 19.98726800
1004	1	 18.55960600	 18.55960600	 21.41493000
1005	1	 19.98726800	 17.13194400	 19.98726800
1006	1	 21.41493000	 18.55960600	 21.41493000
1007	1	  0.00000000	 19.98726800	 19.98726800
1008	1	  1.42766200	 21.41493000	 21.41493000
1009	1	  2.85532400	 19.98726800	 19.98726800
1010	1	  4.28298600	 21.41493000	 21.41493000
1011	1	  5.71064800	 19.98726800	 19.98726800
1012	1	  7.13831000	 21.41493000	 21.41493000
1013	1	  8.56597200	 19.98726800	 19.98726800
1014	1	  9.99363400	 21.41493000	 21.41493000
1015	1	 11.42129600	 19.98726800	 19.98726800
1016	1	 12.84895800	 21.41493000	 21.41493000
1017	1	 14.27662000	 19.98726800	 19.98726800
1018	1	 15.70428200	 21.41493000	 21.41493000
1019	1	 17.13194400	 19.98726800	 19.98726800
1020	1	 18.55960600	 21.41493000	 21.41493000
1021	1	 19.98726800	 19.98726800	 19.98726800
1022	1	 21.41493000	 21.41493000	 21.41493000
