          63
Lattice="  10.8619   0.0000   0.0000   0.0000  10.8619   0.0000   0.0000   0.0000  10.8619 " Time=0.000E+00  Step=0  Energy=-186.663  Barrier=0.000
Si     4.55290859   -5.41353497   -1.12745154
Si     1.74936871    5.19422654    4.17942414
Si    -4.31209925   -2.21676666    0.39086070
Si     1.90594246   -5.13365733   -4.42794455
Si     5.09670853   -4.00457337    3.40067308
Si     3.73989359   -0.49349386    2.41492657
Si    -3.57684484    4.03703128    3.55932160
Si    -3.16846264    2.23022621    5.26265343
Si     2.23540332    0.07599972   -1.00737635
Si    -0.34775911    4.21548383    4.37161784
Si    -2.46365871    0.10997899    4.55280453
Si    -0.00704169   -4.49708210   -3.23285111
Si     4.93990257    3.09033207   -3.97577327
Si    -5.21059944    5.28653943   -3.30938356
Si     0.82354753   -3.32150944   -1.35413382
Si    -0.88400202   -1.89397786   -0.70365406
Si    -2.11505473   -3.55010808   -4.28517665
Si    -4.37900756   -1.06602958    4.34044235
Si     0.44213600    1.04514414   -2.15241380
Si    -1.27852437   -1.24730511   -4.58573036
Si     0.13344547   -2.43682415    3.22664525
Si     5.11097214    1.20681553    1.15573342
Si    -1.84518741    0.49604830    2.27785098
Si    -0.47143318    2.92589151   -1.09634174
Si    -0.95656801    2.98002435   -4.68579094
Si     2.89432009   -2.08703873   -1.83609977
Si     4.92662452   -3.90075068   -4.99977750
Si    -1.07572423    4.36857788   -2.84849038
Si     1.76346544    0.41921923    4.96673203
Si     2.92778124    3.70761611   -1.35959332
Si     1.08296059    1.89356420   -4.19751196
Si     3.97303542    1.58617334   -0.94329978
Si    -3.10008752    5.41160145   -2.12276591
Si    -1.51537614   -4.76319955    1.09601587
Si    -1.88018310   -3.59090476    2.99962613
Si    -3.71792275    0.13140903    0.64745026
Si     1.79227004    0.23189991    1.28407904
Si     3.59733965   -2.87455286    2.00287651
Si    -3.23886925    3.43863347   -0.52232322
Si     2.75905560   -2.90749336   -4.28885719
Si     1.61973997    2.50531735    1.85601046
Si    -2.20397118    3.95006742    1.55060605
Si     5.21019304    4.68286313    2.66356912
Si    -5.34929341    1.23334773   -2.60313111
Si     4.73157488   -0.72516742   -3.62524765
Si    -5.33793858    3.93149805    0.48805025
Si     0.88968948   -1.66330432    5.36834805
Si    -2.15192927   -5.08418752    4.62735075
Si     2.63026014    3.59274532   -3.63813586
Si     4.92470233    2.25190067    4.76909319
Si    -1.40237585   -0.28947685   -2.35428239
Si     1.21603092    3.90381442    0.05389962
Si    -0.21087400   -0.94234928    1.47464246
Si    -2.62713432   -3.54749493   -0.57836376
Si    -0.60953649    2.60182902    2.58613414
Si     3.24801715    3.51398019    3.41876025
Si    -3.25497098    1.12001825   -1.44358131
Si     0.72463235   -4.75782742    0.53428003
Si    -3.98015718   -2.66672985    2.69925096
Si    -4.43333783   -2.24131718   -4.48563474
Si     1.64294593   -3.97386028    2.51127110
Si     4.36051398   -3.15024570   -0.25231091
Si     4.15585188    0.10522113    4.83491278
